b'##TITLE=Cyanoallene\n##JCAMP-DX=4.24\n##DATA TYPE=UV/VIS SPECTRUM\n##ORIGIN=INSTITUTE OF ENERGY PROBLEMS OF CHEMICAL PHYSICS, RAS\n##OWNER=INEP CP RAS, NIST OSRD\nCollection (C) 2007 copyright by the U.S. Secretary of Commerce\non behalf of the United States of America. All rights reserved.\n##CAS REGISTRY NO=1001-56-5\n##MOLFORM=C4H3N\n##BP=50-51.5/ 50 mm\n##SOURCE REFERENCE=RAS UV No. 22643\n##$NIST SQUIB=1977KRO/826\n##$NIST SOURCE=TYUGLMTE\n##SPECTROMETER/DATA SYSTEM=Zeiss PMQ II\n##XUNITS=Wavelength (nm)\n##YUNITS=Logarithm epsilon\n##XFACTOR=1.0\n##YFACTOR=1.0\n##FIRSTX=201.423\n##LASTX=274.897\n##FIRSTY=3.941\n##MAXX=274.897\n##MINX=201.423\n##MAXY=3.941\n##MINY=0.765\n##NPOINTS=50\n##$REF AUTHOR=Kroner, J.; et al.\n##$REF JOURNAL=Ber. Bunsenges. phys. Chem.\n##$REF VOLUME=81\n##$REF PAGE=826\n##$REF DATE=1977\n##XYPOINTS=(XY..XY)\n201.423,3.941\n202.923,3.872\n204.423,3.816\n205.923,3.768\n207.423,3.726\n208.923,3.686\n210.423,3.648\n211.923,3.608\n213.423,3.565\n214.923,3.519\n216.423,3.469\n217.923,3.415\n219.423,3.356\n220.923,3.293\n222.423,3.227\n223.923,3.158\n225.423,3.088\n226.923,3.017\n228.423,2.948\n229.897,2.884\n231.397,2.814\n232.897,2.748\n234.397,2.683\n235.897,2.616\n237.397,2.546\n238.897,2.471\n240.397,2.391\n241.897,2.306\n243.397,2.215\n244.897,2.120\n246.397,2.022\n247.897,1.921\n249.397,1.818\n250.897,1.716\n252.397,1.616\n253.897,1.519\n255.397,1.426\n256.897,1.339\n258.397,1.259\n259.897,1.187\n261.397,1.123\n262.897,1.068\n264.397,1.020\n265.897,0.980\n267.397,0.945\n268.897,0.915\n270.397,0.885\n271.897,0.853\n273.397,0.815\n274.897,0.765\n##END=\n'