b'##TITLE=4H-Thiopyran-4-one\n##JCAMP-DX=4.24\n##DATA TYPE=UV/VIS SPECTRUM\n##ORIGIN=INSTITUTE OF ENERGY PROBLEMS OF CHEMICAL PHYSICS, RAS\n##OWNER=INEP CP RAS, NIST OSRD\nCollection (C) 2007 copyright by the U.S. Secretary of Commerce\non behalf of the United States of America. All rights reserved.\n##CAS REGISTRY NO=1003-41-4\n##MOLFORM=C5H4OS\n##SOURCE REFERENCE=RAS UV No. 12546\n##$NIST SQUIB=1956ROL/FRA582\n##$NIST SOURCE=TYUGLMTE\n##SPECTROMETER/DATA SYSTEM=Beckman DU\n##XUNITS=Wavelength (nm)\n##YUNITS=Logarithm epsilon\n##XFACTOR=1.0\n##YFACTOR=1.0\n##FIRSTX=221.63\n##LASTX=306.95\n##FIRSTY=2.899\n##MAXX=306.95\n##MINX=221.63\n##MAXY=4.151\n##MINY=2.627\n##NPOINTS=85\n##$REF AUTHOR=Rolla, M.; Franzosini, P.\n##$REF JOURNAL=Ann. chim. (Rome)\n##$REF VOLUME=46\n##$REF PAGE=582\n##$REF DATE=1956\n##XYPOINTS=(XY..XY)\n221.63,2.899\n223.45,2.794\n225.88,2.682\n228.61,2.627\n231.35,2.682\n233.77,2.794\n236.20,2.867\n238.03,2.958\n239.85,3.044\n241.37,3.115\n242.88,3.177\n244.40,3.231\n245.62,3.285\n247.13,3.334\n247.74,3.351\n248.05,3.362\n248.35,3.372\n248.65,3.377\n248.96,3.388\n249.26,3.398\n249.56,3.407\n249.87,3.412\n250.48,3.431\n251.39,3.462\n252.30,3.498\n253.21,3.532\n254.12,3.567\n255.03,3.615\n255.94,3.644\n256.85,3.681\n257.76,3.713\n258.67,3.746\n259.58,3.767\n260.50,3.800\n261.41,3.830\n262.32,3.855\n263.23,3.872\n264.14,3.897\n265.05,3.919\n265.96,3.933\n266.87,3.948\n267.78,3.972\n268.69,3.994\n269.61,4.005\n270.52,4.025\n271.43,4.049\n272.34,4.060\n273.25,4.076\n274.16,4.098\n275.07,4.107\n275.98,4.112\n276.89,4.115\n277.80,4.120\n278.71,4.125\n279.63,4.132\n280.54,4.144\n281.45,4.151\n282.36,4.151\n283.27,4.146\n284.18,4.139\n285.09,4.128\n286.00,4.118\n286.91,4.105\n287.82,4.095\n288.73,4.083\n289.65,4.074\n290.56,4.061\n291.47,4.040\n292.38,4.023\n293.29,3.994\n294.20,3.967\n295.11,3.919\n296.02,3.885\n296.93,3.824\n297.84,3.784\n298.76,3.728\n299.67,3.676\n300.58,3.603\n301.49,3.543\n302.40,3.483\n303.31,3.388\n304.22,3.328\n305.13,3.252\n306.04,3.134\n306.95,3.055\n##END=\n'