b'##TITLE=1H-Pyrrole-2-carboxaldehyde\n##JCAMP-DX=4.24\n##DATA TYPE=UV/VIS SPECTRUM\n##ORIGIN=INSTITUTE OF ENERGY PROBLEMS OF CHEMICAL PHYSICS, RAS\n##OWNER=INEP CP RAS, NIST OSRD\nCollection (C) 2007 copyright by the U.S. Secretary of Commerce\non behalf of the United States of America. All rights reserved.\n##CAS REGISTRY NO=1003-29-8\n##MOLFORM=C5H5NO\n##MP=44.4-44.9\n##SOURCE REFERENCE=RAS UV No. 16238\n##$NIST SQUIB=1972MAT/SHO1349\n##$NIST SOURCE=TYUGLMTE\n##SPECTROMETER/DATA SYSTEM=Bausch and Lomb Spectronic 505\n##XUNITS=Wavelength (nm)\n##YUNITS=Logarithm epsilon\n##XFACTOR=1.0\n##YFACTOR=1.0\n##FIRSTX=225.4\n##LASTX=323.23\n##FIRSTY=2.992\n##MAXX=323.23\n##MINX=225.4\n##MAXY=4.239\n##MINY=2.992\n##NPOINTS=72\n##$REF AUTHOR=Matsuo, T.; Shosenji, H.\n##$REF JOURNAL=Bull. Chem. Soc. Japan\n##$REF VOLUME=45\n##$REF PAGE=1349\n##$REF DATE=1972\n##XYPOINTS=(XY..XY)\n225.40,2.992\n226.94,3.050\n228.32,3.169\n229.73,3.245\n231.32,3.294\n232.76,3.338\n234.22,3.391\n235.69,3.438\n237.19,3.491\n238.70,3.519\n240.23,3.555\n241.78,3.595\n243.36,3.626\n244.95,3.654\n246.56,3.680\n250.07,3.717\n253.67,3.740\n255.62,3.751\n257.60,3.751\n259.61,3.756\n261.65,3.772\n263.72,3.782\n265.59,3.802\n267.25,3.830\n268.69,3.860\n270.15,3.889\n271.62,3.916\n272.86,3.941\n274.11,3.968\n275.37,3.994\n276.38,4.018\n277.15,4.043\n277.92,4.065\n278.96,4.086\n279.48,4.108\n280.26,4.129\n281.32,4.146\n282.38,4.164\n283.18,4.180\n284.53,4.196\n285.88,4.209\n287.26,4.222\n289.20,4.233\n291.45,4.239\n293.74,4.231\n295.77,4.221\n296.65,4.206\n297.83,4.190\n299.02,4.174\n299.92,4.155\n300.82,4.138\n301.73,4.120\n302.65,4.101\n303.26,4.078\n304.18,4.057\n304.80,4.032\n305.74,4.009\n306.36,3.981\n307.31,3.951\n308.26,3.923\n308.89,3.889\n309.85,3.852\n310.82,3.811\n311.46,3.767\n312.44,3.717\n313.42,3.667\n314.41,3.611\n316.07,3.546\n317.41,3.470\n319.10,3.378\n320.81,3.262\n323.23,3.147\n##END=\n'