b'##TITLE=1,2-Propadiene, 1-bromo-\n##JCAMP-DX=4.24\n##DATA TYPE=UV/VIS SPECTRUM\n##ORIGIN=INSTITUTE OF ENERGY PROBLEMS OF CHEMICAL PHYSICS, RAS\n##OWNER=INEP CP RAS, NIST OSRD\nCollection (C) 2007 copyright by the U.S. Secretary of Commerce\non behalf of the United States of America. All rights reserved.\n##CAS REGISTRY NO=10024-18-7\n##MOLFORM=C3H3Br\n##SOURCE REFERENCE=RAS UV No. 17658\n##$NIST SQUIB=1977KRO/826\n##$NIST SOURCE=TYUGLMTE\n##SPECTROMETER/DATA SYSTEM=Zeiss PMQ II\n##XUNITS=Wavelength (nm)\n##YUNITS=Logarithm epsilon\n##XFACTOR=1.0\n##YFACTOR=1.0\n##FIRSTX=201.01\n##LASTX=310.88\n##FIRSTY=3.764\n##MAXX=310.88\n##MINX=201.01\n##MAXY=3.764\n##MINY=0.661\n##NPOINTS=132\n##$REF AUTHOR=Kroner, J.; et al.\n##$REF JOURNAL=Ber. Bunsen-Gesellschaft Ph. Chem.\n##$REF VOLUME=81\n##$REF PAGE=826\n##$REF DATE=1977\n##XYPOINTS=(XY..XY)\n201.01,3.764\n201.70,3.747\n202.30,3.726\n203.00,3.705\n203.61,3.684\n204.23,3.663\n204.94,3.646\n205.56,3.625\n206.19,3.604\n206.82,3.583\n207.46,3.562\n208.10,3.540\n208.74,3.515\n209.39,3.490\n210.04,3.469\n210.70,3.443\n211.36,3.418\n211.93,3.393\n212.60,3.368\n213.27,3.342\n213.95,3.317\n214.53,3.287\n215.12,3.262\n215.71,3.237\n216.30,3.212\n216.89,3.182\n217.50,3.157\n218.10,3.127\n218.63,3.101\n219.16,3.076\n219.86,3.042\n220.45,3.012\n221.09,2.980\n221.79,2.950\n222.41,2.925\n223.04,2.895\n223.68,2.870\n224.32,2.841\n224.87,2.810\n225.49,2.782\n226.14,2.752\n226.68,2.726\n227.34,2.697\n228.00,2.672\n228.66,2.647\n229.22,2.617\n229.89,2.588\n230.45,2.558\n231.12,2.529\n231.69,2.495\n232.38,2.465\n232.93,2.438\n233.64,2.406\n234.34,2.377\n235.04,2.343\n235.74,2.314\n236.36,2.287\n237.16,2.259\n237.76,2.232\n238.43,2.203\n239.20,2.170\n239.93,2.145\n240.67,2.120\n241.41,2.090\n242.25,2.063\n243.04,2.037\n243.71,2.013\n244.53,1.989\n245.34,1.967\n246.29,1.943\n247.09,1.921\n248.13,1.900\n249.05,1.879\n250.10,1.858\n251.17,1.846\n252.38,1.833\n253.60,1.820\n254.83,1.816\n256.07,1.812\n257.33,1.816\n258.60,1.820\n259.88,1.825\n261.17,1.829\n262.48,1.837\n263.80,1.841\n265.13,1.846\n266.42,1.851\n267.82,1.857\n269.19,1.860\n270.60,1.862\n272.01,1.854\n273.31,1.846\n274.70,1.833\n275.98,1.820\n277.28,1.803\n278.43,1.790\n279.74,1.770\n280.91,1.749\n282.09,1.726\n283.27,1.702\n284.46,1.677\n285.50,1.647\n286.54,1.622\n287.58,1.593\n288.64,1.563\n289.70,1.534\n290.59,1.504\n291.49,1.470\n292.39,1.437\n293.30,1.403\n294.21,1.373\n294.95,1.340\n295.57,1.312\n296.43,1.272\n297.37,1.239\n298.07,1.207\n298.87,1.171\n299.44,1.137\n300.20,1.104\n300.97,1.070\n301.74,1.036\n302.43,1.003\n303.29,0.964\n304.07,0.931\n304.85,0.897\n305.84,0.863\n306.63,0.829\n307.43,0.796\n308.24,0.762\n309.25,0.728\n310.06,0.695\n310.88,0.661\n##END=\n'