b'##TITLE=Borazine, 1,3,5-trimethyl-\n##JCAMP-DX=4.24\n##DATA TYPE=UV/VIS SPECTRUM\n##ORIGIN=INSTITUTE OF ENERGY PROBLEMS OF CHEMICAL PHYSICS, RAS\n##OWNER=INEP CP RAS, NIST OSRD\nCollection (C) 2007 copyright by the U.S. Secretary of Commerce\non behalf of the United States of America. All rights reserved.\n##CAS REGISTRY NO=1004-35-9\n##MOLFORM=C3H12B3N3\n##SOURCE REFERENCE=RAS UV No. 16202\n##$NIST SQUIB=1972KRO/1585\n##$NIST SOURCE=TYUGLMTE\n##SPECTROMETER/DATA SYSTEM=McPherson 225\n##XUNITS=Wavelength (nm)\n##YUNITS=Logarithm epsilon\n##XFACTOR=1.0\n##YFACTOR=1.0\n##FIRSTX=119.21\n##LASTX=232.97\n##FIRSTY=4.453\n##MAXX=232.97\n##MINX=119.21\n##MAXY=4.453\n##MINY=1.321\n##NPOINTS=390\n##$REF AUTHOR=Kroner, J.; et al.\n##$REF JOURNAL=Tetrahedron\n##$REF VOLUME=28\n##$REF PAGE=1585\n##$REF DATE=1972\n##XYPOINTS=(XY..XY)\n119.21,4.453\n119.26,4.453\n119.31,4.453\n119.35,4.453\n119.40,4.453\n119.45,4.453\n119.50,4.453\n119.55,4.453\n119.60,4.453\n119.80,4.453\n119.95,4.453\n120.11,4.449\n120.26,4.449\n120.41,4.449\n120.56,4.449\n120.71,4.449\n120.87,4.449\n121.02,4.449\n121.17,4.446\n121.33,4.446\n121.48,4.446\n121.64,4.446\n121.79,4.446\n121.95,4.442\n122.10,4.442\n122.26,4.439\n122.42,4.439\n122.57,4.439\n122.73,4.439\n122.89,4.435\n123.05,4.435\n123.21,4.435\n123.37,4.435\n123.53,4.435\n123.69,4.435\n123.85,4.432\n124.01,4.432\n124.17,4.425\n124.33,4.425\n124.49,4.421\n124.65,4.421\n124.82,4.418\n124.98,4.415\n125.14,4.415\n125.31,4.411\n125.47,4.411\n125.64,4.411\n125.80,4.404\n125.97,4.404\n126.14,4.401\n126.30,4.401\n126.47,4.401\n126.64,4.397\n126.81,4.397\n126.98,4.397\n127.15,4.394\n127.32,4.397\n127.49,4.390\n127.66,4.390\n127.83,4.394\n128.00,4.394\n128.17,4.390\n128.34,4.387\n128.51,4.383\n128.69,4.383\n128.86,4.380\n129.04,4.380\n129.21,4.380\n129.39,4.376\n129.56,4.373\n129.74,4.373\n129.91,4.373\n130.09,4.370\n130.27,4.366\n130.45,4.363\n130.63,4.363\n130.80,4.359\n130.98,4.356\n131.16,4.352\n131.34,4.349\n131.53,4.349\n131.71,4.349\n131.89,4.345\n132.07,4.345\n132.25,4.338\n132.44,4.335\n132.62,4.331\n132.81,4.328\n132.99,4.324\n133.18,4.321\n133.36,4.318\n133.55,4.314\n133.74,4.311\n133.92,4.311\n134.11,4.307\n134.30,4.304\n134.49,4.297\n134.68,4.293\n134.87,4.290\n135.06,4.286\n135.25,4.283\n135.44,4.279\n135.64,4.279\n135.83,4.276\n136.02,4.266\n136.22,4.262\n136.41,4.259\n136.61,4.255\n136.80,4.252\n137.00,4.248\n137.20,4.241\n137.39,4.234\n137.59,4.227\n137.79,4.217\n137.99,4.210\n138.19,4.203\n138.59,4.189\n138.79,4.179\n139.20,4.162\n139.40,4.155\n139.61,4.144\n139.81,4.137\n140.01,4.124\n140.22,4.113\n140.43,4.099\n140.63,4.089\n140.84,4.079\n141.05,4.072\n141.26,4.065\n141.47,4.061\n141.68,4.051\n141.89,4.047\n142.10,4.044\n142.31,4.040\n142.52,4.037\n142.74,4.033\n142.95,4.033\n143.16,4.033\n143.38,4.033\n143.60,4.030\n144.03,4.027\n144.25,4.027\n144.46,4.020\n144.68,4.023\n144.90,4.020\n145.12,4.013\n145.34,4.009\n145.57,4.006\n146.01,4.002\n146.24,4.002\n146.46,3.999\n146.69,3.988\n146.91,3.988\n147.14,3.978\n147.36,3.968\n147.59,3.961\n147.82,3.957\n148.05,3.943\n148.28,3.937\n148.51,3.923\n148.74,3.909\n148.97,3.898\n149.21,3.881\n149.44,3.874\n149.68,3.864\n149.91,3.853\n150.15,3.846\n150.38,3.843\n150.62,3.840\n150.86,3.829\n151.10,3.826\n151.34,3.808\n151.58,3.801\n151.82,3.794\n152.06,3.781\n152.30,3.774\n152.55,3.760\n152.79,3.743\n153.04,3.729\n153.28,3.718\n153.53,3.715\n153.77,3.722\n154.02,3.743\n154.27,3.743\n154.77,3.718\n155.02,3.694\n155.28,3.677\n155.53,3.663\n155.78,3.652\n156.04,3.646\n156.29,3.635\n156.55,3.632\n156.81,3.632\n157.06,3.632\n157.32,3.632\n157.58,3.639\n157.84,3.642\n158.10,3.639\n158.37,3.646\n158.63,3.646\n158.89,3.646\n159.16,3.646\n159.43,3.646\n159.69,3.646\n159.96,3.642\n160.23,3.642\n160.50,3.639\n160.77,3.639\n161.04,3.635\n161.31,3.632\n161.58,3.625\n161.86,3.621\n162.13,3.614\n162.41,3.611\n162.69,3.607\n162.96,3.604\n163.24,3.604\n163.52,3.607\n163.80,3.607\n164.08,3.611\n164.37,3.614\n164.65,3.618\n164.93,3.625\n165.22,3.628\n165.51,3.625\n165.79,3.632\n166.08,3.635\n166.37,3.635\n166.66,3.635\n166.95,3.632\n167.25,3.628\n167.54,3.628\n167.84,3.628\n168.13,3.621\n168.43,3.618\n169.02,3.611\n169.32,3.607\n169.62,3.611\n169.93,3.621\n170.23,3.632\n170.53,3.646\n170.84,3.663\n171.15,3.680\n171.45,3.697\n171.76,3.708\n172.07,3.722\n172.38,3.743\n172.69,3.763\n173.01,3.781\n173.32,3.801\n173.64,3.822\n173.95,3.840\n174.27,3.860\n174.59,3.878\n174.91,3.898\n175.23,3.916\n175.55,3.937\n175.88,3.947\n176.20,3.964\n176.53,3.985\n176.85,4.006\n177.18,4.023\n177.51,4.054\n177.84,4.061\n178.17,4.079\n178.51,4.099\n178.84,4.117\n179.18,4.137\n179.51,4.155\n179.85,4.172\n180.19,4.193\n180.53,4.210\n180.88,4.227\n181.22,4.245\n181.56,4.266\n181.91,4.283\n182.26,4.300\n182.61,4.318\n182.96,4.335\n183.31,4.356\n183.66,4.363\n184.01,4.373\n184.37,4.383\n184.73,4.390\n185.08,4.401\n185.44,4.397\n185.80,4.404\n186.17,4.408\n186.53,4.408\n187.26,4.404\n187.63,4.404\n188.00,4.401\n188.37,4.390\n188.74,4.383\n189.12,4.376\n189.49,4.370\n189.87,4.359\n190.25,4.345\n190.63,4.328\n191.01,4.311\n191.39,4.297\n191.78,4.279\n192.16,4.259\n192.55,4.234\n192.94,4.217\n193.33,4.196\n193.72,4.172\n194.12,4.130\n194.51,4.096\n194.91,4.072\n195.31,4.037\n195.71,4.020\n196.11,3.999\n196.52,3.995\n196.92,3.985\n197.33,3.961\n197.74,3.950\n198.15,3.937\n198.56,3.923\n198.97,3.909\n199.39,3.895\n199.81,3.881\n200.23,3.864\n200.65,3.846\n201.07,3.829\n201.49,3.819\n201.92,3.805\n202.35,3.781\n202.78,3.749\n203.21,3.725\n203.64,3.697\n204.08,3.673\n204.52,3.642\n204.96,3.621\n205.40,3.611\n205.84,3.587\n206.28,3.559\n206.73,3.535\n207.18,3.510\n207.63,3.483\n208.08,3.448\n208.54,3.424\n208.99,3.389\n209.45,3.365\n209.91,3.337\n210.38,3.306\n210.84,3.268\n211.31,3.247\n211.78,3.199\n212.25,3.150\n212.72,3.122\n213.20,3.095\n213.67,3.077\n214.15,3.064\n214.63,3.057\n215.12,3.039\n215.60,3.025\n216.09,3.008\n216.58,3.015\n217.07,3.025\n217.57,3.015\n218.07,2.977\n218.57,2.953\n219.07,2.946\n219.57,2.928\n220.08,2.894\n220.59,2.870\n221.10,2.887\n221.61,2.890\n222.13,2.825\n222.64,2.804\n223.16,2.793\n223.69,2.741\n224.21,2.631\n224.74,2.530\n225.27,2.520\n225.80,2.516\n226.34,2.495\n226.88,2.475\n227.42,2.395\n227.96,2.249\n228.51,2.173\n229.06,2.045\n229.61,1.948\n230.16,1.861\n230.72,1.758\n231.28,1.671\n231.84,1.532\n232.40,1.446\n232.97,1.321\n##END=\n'