b'##TITLE=3-Iodothiophene\n##JCAMP-DX=4.24\n##DATA TYPE=UV/VIS SPECTRUM\n##ORIGIN=INSTITUTE OF ENERGY PROBLEMS OF CHEMICAL PHYSICS, RAS\n##OWNER=INEP CP RAS, NIST OSRD\nCollection (C) 2007 copyright by the U.S. Secretary of Commerce\non behalf of the United States of America. All rights reserved.\n##CAS REGISTRY NO=10486-61-0\n##MOLFORM=C4H3IS\n##BP=77\n##SOURCE REFERENCE=RAS UV No. 19759\n##$NIST SQUIB=1961LAN347\n##$NIST SOURCE=TYUGLMTE\n##SPECTROMETER/DATA SYSTEM=unknown\n##XUNITS=Wavelength (nm)\n##YUNITS=Logarithm epsilon\n##XFACTOR=1.0\n##YFACTOR=1.0\n##FIRSTX=206.94\n##LASTX=318.88\n##FIRSTY=3.744\n##MAXX=318.88\n##MINX=206.94\n##MAXY=3.744\n##MINY=0.954\n##NPOINTS=138\n##$REF AUTHOR=Lang (editor), L.\n##$REF JOURNAL=Absorption Spectra in the Ultraviolet and Visible Region\n##$REF VOLUME=2\n##$REF PAGE=347\n##$REF DATE=1961\n##XYPOINTS=(XY..XY)\n206.94,3.744\n207.45,3.717\n208.13,3.690\n208.81,3.663\n209.48,3.635\n209.99,3.608\n210.84,3.584\n211.52,3.557\n212.36,3.533\n213.21,3.506\n214.23,3.482\n215.24,3.462\n216.77,3.451\n218.29,3.451\n219.64,3.465\n220.83,3.482\n222.18,3.499\n223.54,3.516\n224.89,3.533\n226.25,3.547\n227.60,3.560\n228.96,3.577\n230.48,3.584\n231.84,3.598\n233.36,3.605\n234.72,3.615\n236.24,3.618\n237.59,3.629\n239.12,3.639\n240.64,3.649\n242.00,3.663\n243.35,3.673\n244.88,3.680\n246.40,3.683\n247.92,3.687\n249.45,3.680\n250.80,3.666\n251.99,3.646\n253.17,3.625\n254.02,3.601\n254.87,3.577\n255.55,3.550\n256.22,3.523\n256.73,3.496\n257.24,3.465\n257.58,3.434\n258.09,3.407\n258.59,3.376\n258.93,3.346\n259.27,3.315\n259.78,3.284\n260.12,3.254\n260.46,3.223\n260.96,3.196\n261.30,3.165\n261.64,3.134\n261.98,3.104\n262.32,3.073\n262.66,3.042\n263.00,3.012\n263.34,2.981\n263.50,2.950\n263.84,2.920\n264.18,2.889\n264.69,2.862\n265.03,2.831\n265.37,2.801\n265.88,2.773\n266.38,2.743\n266.72,2.712\n267.23,2.685\n267.74,2.657\n268.25,2.630\n268.75,2.603\n269.26,2.576\n269.77,2.548\n270.45,2.521\n271.13,2.494\n271.63,2.467\n272.48,2.439\n273.16,2.412\n273.83,2.385\n274.68,2.358\n275.36,2.330\n276.21,2.306\n276.71,2.279\n277.73,2.255\n278.24,2.228\n279.25,2.204\n279.93,2.177\n280.78,2.153\n281.62,2.129\n282.47,2.102\n283.32,2.078\n284.17,2.051\n285.01,2.024\n285.69,1.996\n286.71,1.972\n287.38,1.945\n288.23,1.921\n289.08,1.894\n289.92,1.870\n290.60,1.843\n291.45,1.819\n292.29,1.795\n293.14,1.768\n293.99,1.744\n294.66,1.717\n295.51,1.693\n296.36,1.669\n297.20,1.642\n297.88,1.615\n298.73,1.591\n299.41,1.564\n300.25,1.540\n301.10,1.516\n301.61,1.489\n302.62,1.465\n303.30,1.437\n304.15,1.414\n304.99,1.386\n305.84,1.363\n306.69,1.339\n307.37,1.311\n308.21,1.288\n309.06,1.260\n309.91,1.236\n310.75,1.209\n311.60,1.185\n312.28,1.158\n313.12,1.134\n313.97,1.110\n314.82,1.083\n315.66,1.056\n316.51,1.032\n317.36,1.005\n318.20,0.981\n318.88,0.954\n##END=\n'