b'##TITLE=1-Propyne, 3-bromo-\n##JCAMP-DX=4.24\n##DATA TYPE=UV/VIS SPECTRUM\n##ORIGIN=INSTITUTE OF ENERGY PROBLEMS OF CHEMICAL PHYSICS, RAS\n##OWNER=INEP CP RAS, NIST OSRD\nCollection (C) 2007 copyright by the U.S. Secretary of Commerce\non behalf of the United States of America. All rights reserved.\n##CAS REGISTRY NO=106-96-7\n##MOLFORM=C3H3Br\n##BP=82-85\n##SOURCE REFERENCE=RAS UV No. 19925\n##$NIST SQUIB=1966PER/BRAa2/1\n##$NIST SOURCE=TYUGLMTE\n##SPECTROMETER/DATA SYSTEM=Zeiss PMQ II\n##XUNITS=Wavelength (nm)\n##YUNITS=Logarithm epsilon\n##XFACTOR=1.0\n##YFACTOR=1.0\n##FIRSTX=182.1\n##LASTX=288.17\n##FIRSTY=4.401\n##MAXX=288.17\n##MINX=182.1\n##MAXY=4.555\n##MINY=1.637\n##NPOINTS=207\n##$REF AUTHOR=Perkampus, H.-H.; Braunschweig, T.H.\n##$REF JOURNAL=UV atlas of organik compounds\n##$REF VOLUME=1\n##$REF PAGE=A2/1\n##$REF DATE=1966\n##XYPOINTS=(XY..XY)\n182.10,4.401\n182.17,4.401\n182.24,4.403\n182.31,4.403\n182.38,4.405\n182.45,4.405\n182.52,4.405\n182.60,4.408\n182.67,4.408\n182.74,4.410\n182.81,4.410\n182.88,4.412\n182.95,4.412\n183.02,4.412\n183.09,4.414\n183.16,4.414\n183.24,4.416\n183.31,4.416\n183.38,4.418\n183.45,4.418\n183.52,4.418\n183.88,4.425\n184.24,4.429\n184.60,4.440\n184.97,4.448\n185.33,4.452\n185.70,4.461\n186.06,4.469\n186.43,4.474\n186.80,4.482\n187.18,4.486\n187.55,4.493\n187.92,4.501\n188.30,4.503\n188.68,4.512\n189.06,4.516\n189.44,4.523\n189.82,4.525\n190.21,4.527\n190.59,4.533\n190.98,4.538\n191.37,4.538\n191.76,4.544\n192.15,4.546\n192.54,4.548\n192.94,4.550\n193.34,4.552\n193.73,4.555\n194.13,4.555\n194.54,4.552\n194.94,4.550\n195.34,4.548\n195.75,4.546\n196.16,4.544\n196.57,4.540\n196.98,4.538\n197.40,4.535\n197.81,4.529\n198.23,4.527\n198.65,4.518\n199.07,4.514\n199.49,4.506\n199.91,4.497\n200.34,4.484\n200.77,4.474\n201.20,4.469\n201.63,4.461\n202.06,4.450\n202.50,4.435\n202.94,4.425\n203.38,4.416\n203.82,4.405\n204.26,4.393\n204.70,4.373\n205.15,4.352\n205.60,4.333\n206.05,4.318\n206.50,4.301\n206.96,4.286\n207.41,4.269\n207.87,4.248\n208.33,4.229\n208.80,4.214\n209.26,4.194\n209.73,4.175\n210.20,4.156\n210.67,4.143\n211.14,4.124\n211.62,4.105\n212.09,4.090\n212.57,4.071\n213.06,4.054\n213.54,4.039\n214.03,4.020\n214.51,4.009\n215.00,3.990\n215.50,3.977\n215.99,3.960\n216.49,3.947\n216.99,3.928\n217.49,3.917\n218.00,3.905\n218.50,3.894\n219.01,3.881\n219.52,3.868\n220.04,3.858\n220.55,3.847\n221.07,3.834\n221.59,3.826\n222.12,3.813\n222.64,3.804\n223.17,3.796\n223.70,3.790\n224.24,3.781\n224.77,3.770\n225.31,3.762\n225.85,3.749\n226.40,3.738\n226.94,3.730\n227.49,3.719\n228.04,3.711\n228.60,3.700\n229.16,3.689\n229.72,3.679\n230.28,3.668\n230.84,3.657\n231.41,3.647\n231.98,3.636\n232.56,3.623\n233.13,3.613\n233.71,3.600\n234.30,3.585\n234.88,3.572\n235.47,3.559\n236.06,3.542\n236.66,3.530\n237.25,3.513\n237.85,3.498\n238.46,3.481\n239.06,3.468\n239.67,3.451\n240.29,3.436\n240.90,3.419\n241.52,3.400\n242.14,3.385\n242.77,3.368\n243.40,3.348\n244.03,3.329\n244.66,3.312\n245.30,3.293\n245.94,3.274\n246.59,3.253\n247.24,3.233\n247.89,3.214\n248.55,3.193\n249.20,3.172\n249.87,3.150\n250.53,3.129\n251.20,3.103\n251.88,3.080\n252.55,3.059\n253.23,3.033\n253.92,3.007\n254.60,2.986\n255.30,2.958\n255.99,2.935\n256.69,2.907\n257.39,2.884\n258.10,2.856\n258.81,2.833\n259.58,2.809\n260.35,2.786\n261.12,2.763\n261.75,2.746\n262.38,2.727\n263.09,2.706\n263.90,2.681\n264.64,2.654\n265.39,2.626\n266.14,2.596\n266.89,2.566\n267.65,2.536\n268.42,2.507\n269.19,2.475\n269.96,2.443\n270.74,2.411\n271.52,2.377\n272.31,2.345\n273.10,2.313\n273.89,2.281\n274.69,2.245\n275.50,2.210\n276.31,2.178\n277.12,2.140\n277.94,2.106\n278.77,2.068\n279.60,2.034\n280.43,1.997\n281.27,1.963\n282.11,1.925\n282.96,1.891\n283.82,1.852\n284.68,1.816\n285.54,1.771\n286.41,1.729\n287.29,1.686\n288.17,1.637\n##END=\n'