b'##TITLE=1-Butene\n##JCAMP-DX=4.24\n##DATA TYPE=UV/VIS SPECTRUM\n##ORIGIN=INSTITUTE OF ENERGY PROBLEMS OF CHEMICAL PHYSICS, RAS\n##OWNER=INEP CP RAS, NIST OSRD\nCollection (C) 2007 copyright by the U.S. Secretary of Commerce\non behalf of the United States of America. All rights reserved.\n##CAS REGISTRY NO=106-98-9\n##MOLFORM=C4H8\n##MP=-185.3\n##BP=-6.2\n##SOURCE REFERENCE=RAS UV No. 20\n##$NIST SQUIB=1962SAM/MAR783-786\n##$NIST SOURCE=TSGMTE\n##SPECTROMETER/DATA SYSTEM=n.i.g.\n##XUNITS=Wavelength (nm)\n##YUNITS=Logarithm epsilon\n##XFACTOR=1.000000\n##YFACTOR=1.000000\n##FIRSTX=148.1694\n##LASTX=195.8584\n##FIRSTY=2.78286\n##MAXX=195.858\n##MINX=148.169\n##MAXY=3.07109\n##MINY=0.766041\n##NPOINTS=279\n##$REF AUTHOR=Samson, J.A.R.; Marmo, F.F.; Watanabe, K.\n##$REF TITLE=Absorption and photoionization coefficients of propylene and butene-1 in the vacuum ultraviolet\n##$REF JOURNAL=J. Chem. Phys.\n##$REF VOLUME=36\n##$REF NUMBER=3\n##$REF PAGE=783-786\n##$REF DATE=1962\n##XYPOINTS=(XY..XY)\n148.1694,2.782857\n148.4288,2.790172\n148.6941,2.797817\n148.9866,2.802493\n148.9866,2.802493\n149.0213,2.805315\n149.0559,2.808054\n149.0881,2.802485\n149.0905,2.810746\n149.1471,2.801899\n149.2061,2.801280\n149.2651,2.800596\n149.3748,2.800009\n149.4514,2.800682\n149.5299,2.801290\n149.6121,2.801865\n149.6121,2.801865\n149.7127,2.809543\n149.8450,2.816404\n150.0057,2.817668\n150.1650,2.816321\n150.3071,2.814194\n150.4606,2.812462\n150.7081,2.813865\n150.8509,2.817043\n150.8509,2.817043\n150.9277,2.819394\n150.9295,2.816892\n151.0118,2.816710\n151.0959,2.816466\n151.0959,2.816466\n151.1700,2.808602\n151.3052,2.796743\n151.4857,2.782416\n151.6955,2.767305\n151.9188,2.753334\n152.1397,2.742670\n152.3422,2.737635\n152.3422,2.737635\n152.6081,2.742931\n152.7936,2.749653\n152.9473,2.756525\n152.9473,2.756525\n153.0066,2.756833\n153.0658,2.757106\n153.1250,2.757307\n153.1250,2.757307\n153.1594,2.759214\n153.1596,2.760160\n153.1599,2.761069\n153.1601,2.761906\n153.3041,2.752452\n153.4436,2.747075\n153.5778,2.742989\n153.5778,2.742989\n153.9781,2.711533\n154.2919,2.685232\n154.5322,2.664083\n154.7122,2.647775\n154.8449,2.635703\n154.9433,2.627017\n155.0204,2.620683\n155.0894,2.615549\n155.1633,2.610384\n155.1633,2.610384\n155.3217,2.605135\n155.4500,2.599825\n155.6589,2.593199\n155.6589,2.593199\n155.8204,2.596124\n155.9837,2.598928\n156.1508,2.601663\n156.1508,2.601663\n156.2293,2.601127\n156.3116,2.600489\n156.3957,2.599799\n156.3957,2.599799\n156.4241,2.596247\n156.4697,2.593957\n156.5716,2.590972\n156.6392,2.590962\n156.8597,2.592964\n157.0820,2.594853\n157.3081,2.596683\n157.3081,2.596683\n157.8336,2.604000\n157.9517,2.602273\n158.0868,2.601401\n158.1881,2.600472\n158.3749,2.623285\n158.6761,2.643518\n159.2226,2.659149\n159.2226,2.659149\n159.7936,2.659866\n160.2616,2.662362\n160.8388,2.665709\n160.8388,2.665709\n160.9387,2.677333\n161.0701,2.686610\n161.3443,2.695719\n161.3443,2.695719\n161.5023,2.714012\n161.7367,2.729105\n162.0578,2.744304\n162.0578,2.744304\n162.1730,2.758349\n162.2883,2.771924\n162.4035,2.785066\n162.5188,2.797808\n162.6340,2.810180\n162.6340,2.810180\n162.8338,2.815514\n163.0560,2.820046\n163.2730,2.826350\n163.2730,2.826350\n163.3914,2.826341\n163.5097,2.826331\n163.6281,2.826322\n163.6281,2.826322\n163.7052,2.821622\n163.7861,2.816808\n163.8689,2.811910\n163.9351,2.807093\n163.9356,2.808755\n163.9360,2.810348\n163.9365,2.811904\n163.9365,2.811904\n164.2206,2.812365\n164.3940,2.813115\n164.6053,2.814794\n164.6053,2.814794\n164.7185,2.836701\n164.7962,2.846642\n164.9050,2.853781\n164.9050,2.853781\n165.3428,2.860300\n165.6625,2.867401\n165.8848,2.874943\n166.0304,2.882793\n166.1201,2.890824\n166.1745,2.898922\n166.2144,2.906975\n166.2603,2.914883\n166.3331,2.922551\n166.3331,2.922551\n166.4726,2.927095\n166.6159,2.931568\n166.7611,2.935948\n166.7611,2.935948\n166.8794,2.935941\n166.9978,2.935933\n167.1161,2.935926\n167.1161,2.935926\n167.2881,2.931300\n167.4091,2.926003\n167.7445,2.921477\n167.7445,2.921477\n168.1203,2.925695\n168.4527,2.931884\n168.7452,2.939460\n169.0008,2.947860\n169.2230,2.956553\n169.4149,2.965046\n169.5799,2.972884\n169.7213,2.979642\n169.8422,2.984918\n169.8422,2.984918\n170.2102,2.991082\n170.5604,2.997244\n170.8971,3.003380\n171.2243,3.009468\n171.5462,3.015488\n171.8668,3.021421\n172.1902,3.027248\n172.5205,3.032952\n172.8619,3.038517\n173.2184,3.043926\n173.2184,3.043926\n173.4770,3.051524\n173.6786,3.056989\n173.9014,3.060718\n174.2235,3.063071\n174.7231,3.064386\n175.4783,3.064987\n175.4783,3.064987\n175.9416,3.067180\n176.3825,3.069432\n176.8512,3.071087\n176.8512,3.071087\n177.2901,3.066338\n177.6330,3.060860\n177.9017,3.054787\n178.1175,3.048263\n178.3019,3.041436\n178.4766,3.034465\n178.6631,3.027519\n178.6631,3.027519\n178.8531,3.023462\n179.1947,3.014810\n179.5876,3.004422\n179.9312,2.995379\n180.1253,2.991008\n180.1253,2.991008\n180.1847,2.988561\n180.3254,2.983577\n180.5278,2.976537\n180.7724,2.967918\n181.0396,2.958220\n181.3099,2.947980\n181.5636,2.937785\n181.7812,2.928279\n181.7812,2.928279\n182.1260,2.921537\n182.4427,2.911712\n182.7147,2.900869\n182.9255,2.891260\n182.9255,2.891260\n183.0417,2.881652\n183.1580,2.871827\n183.2746,2.861774\n183.3916,2.851483\n183.5093,2.840943\n183.6277,2.830140\n183.7469,2.819061\n183.7469,2.819061\n183.8826,2.809274\n184.0220,2.799262\n184.1648,2.789011\n184.3107,2.778511\n184.4592,2.767749\n184.6100,2.756711\n184.7628,2.745381\n184.9173,2.733745\n185.0730,2.721783\n185.2297,2.709478\n185.3869,2.696808\n185.5444,2.683751\n185.7018,2.670281\n185.8588,2.656373\n186.0149,2.641996\n186.1699,2.627116\n186.3234,2.611698\n186.4750,2.595700\n186.4750,2.595700\n186.8165,2.589470\n187.2187,2.587146\n187.7072,2.583795\n187.7072,2.583795\n187.9070,2.567018\n188.1055,2.549633\n188.3013,2.531563\n188.4934,2.512717\n188.6802,2.492995\n188.8606,2.472276\n189.0331,2.450423\n189.1967,2.427273\n189.3498,2.402632\n189.4912,2.376267\n189.6197,2.347894\n189.7339,2.317164\n189.8326,2.283635\n189.9144,2.246746\n189.9144,2.246746\n190.0972,2.201332\n190.2818,2.150321\n190.4702,2.092346\n190.4702,2.092346\n190.7349,2.042325\n191.0520,1.987985\n191.4161,1.928626\n191.8219,1.863351\n192.2640,1.790975\n192.7370,1.709887\n193.2357,1.617791\n193.7546,1.511268\n194.2884,1.384810\n194.2884,1.384810\n194.9810,1.122514\n195.8584,0.766041\n##END=\n'