b'##TITLE=Acetic acid, hydrazide\n##JCAMP-DX=4.24\n##DATA TYPE=UV/VIS SPECTRUM\n##ORIGIN=INSTITUTE OF ENERGY PROBLEMS OF CHEMICAL PHYSICS, RAS\n##OWNER=INEP CP RAS, NIST OSRD\nCollection (C) 2007 copyright by the U.S. Secretary of Commerce\non behalf of the United States of America. All rights reserved.\n##CAS REGISTRY NO=1068-57-1\n##MOLFORM=C2H6N2O\n##MP=67\n##BP=137/ 25 mm\n##SOURCE REFERENCE=RAS UV No. 10214\n##$NIST SQUIB=1950GRA690\n##$NIST SOURCE=TYUGLMTE\n##SPECTROMETER/DATA SYSTEM=n.i.g.\n##XUNITS=Wavelength (nm)\n##YUNITS=Logarithm epsilon\n##XFACTOR=1.0\n##YFACTOR=1.0\n##FIRSTX=229.33\n##LASTX=260.78\n##FIRSTY=2.408\n##MAXX=260.78\n##MINX=229.33\n##MAXY=2.408\n##MINY=0.442\n##NPOINTS=34\n##$REF AUTHOR=Grammaticakis, P.\n##$REF JOURNAL=Bull. soc. chim. France\n##$REF VOLUME=[5] 17\n##$REF PAGE=690\n##$REF DATE=1950\n##XYPOINTS=(XY..XY)\n229.33,2.408\n230.56,2.352\n231.81,2.295\n233.07,2.246\n234.08,2.190\n234.85,2.145\n235.88,2.070\n236.73,2.013\n237.71,1.950\n238.50,1.894\n239.29,1.830\n240.20,1.764\n240.90,1.710\n241.51,1.655\n242.26,1.584\n242.93,1.520\n243.63,1.457\n244.21,1.400\n245.02,1.330\n245.86,1.267\n246.71,1.203\n247.56,1.140\n248.42,1.076\n249.29,1.020\n250.16,0.956\n251.03,0.893\n251.92,0.830\n252.97,0.763\n254.00,0.710\n255.12,0.649\n256.12,0.597\n257.35,0.541\n258.90,0.491\n260.78,0.442\n##END=\n'