b'##TITLE=1,3-Butadiene\n##JCAMP-DX=4.24\n##DATA TYPE=UV/VIS SPECTRUM\n##ORIGIN=INSTITUTE OF ENERGY PROBLEMS OF CHEMICAL PHYSICS, RAS\n##OWNER=INEP CP RAS, NIST OSRD\nCollection (C) 2007 copyright by the U.S. Secretary of Commerce\non behalf of the United States of America. All rights reserved.\n##CAS REGISTRY NO=106-99-0\n##MOLFORM=C4H6\n##MP=-109\n##BP=-4.4\n##SOURCE REFERENCE=RAS UV No. 1478\n##$NIST SQUIB=1961ROS/SYM1-7\n##$NIST SOURCE=TSGMTE\n##SPECTROMETER/DATA SYSTEM=Unicam SP 500\n##XUNITS=Wavelength (nm)\n##YUNITS=Logarithm epsilon\n##XFACTOR=1.000000\n##YFACTOR=1.000000\n##FIRSTX=200.6193\n##LASTX=333.0485\n##FIRSTY=4.32919\n##MAXX=333.048\n##MINX=200.619\n##MAXY=4.47885\n##MINY=2.69033\n##NPOINTS=502\n##$REF AUTHOR=Rosenbaum, J.; Symons, M.C.R.\n##$REF TITLE=Unstable intermediates. Part XI. Allylic carbonium ions\n##$REF JOURNAL=J. Chem. Soc.\n##$REF PAGE=1-7\n##$REF DATE=1961\n##XYPOINTS=(XY..XY)\n200.6193,4.329190\n200.9298,4.323158\n200.9298,4.329190\n201.2058,4.320289\n202.3445,4.292436\n202.3445,4.298908\n202.6205,4.289356\n202.6205,4.292436\n202.9311,4.282740\n202.9311,4.286255\n203.2071,4.276418\n203.2071,4.279590\n203.4832,4.269600\n203.4832,4.276418\n204.0697,4.259374\n204.0697,4.269600\n204.3458,4.259374\n204.9324,4.248902\n204.9324,4.252701\n205.2084,4.242064\n205.2084,4.248902\n205.4844,4.231160\n205.4844,4.238170\n205.7950,4.223586\n205.7950,4.231160\n206.0710,4.219976\n206.0710,4.223586\n206.3471,4.219976\n206.6576,4.208496\n206.6576,4.216335\n206.9336,4.204757\n206.9336,4.208496\n207.2097,4.204757\n207.5202,4.196704\n207.5202,4.200512\n208.9349,4.172114\n208.9349,4.176143\n210.0736,4.150856\n210.0736,4.155087\n210.3841,4.146047\n210.3841,4.150856\n212.3854,4.109055\n212.3854,4.113710\n212.6614,4.104349\n212.6614,4.109055\n212.9375,4.098993\n212.9375,4.104349\n216.3879,4.035258\n216.6640,4.035258\n216.9745,4.023307\n216.9745,4.028972\n217.2506,4.017567\n217.2506,4.023307\n217.5266,4.011018\n217.5266,4.017567\n217.8371,4.005112\n218.1132,3.999125\n218.1132,4.005112\n218.3892,3.992289\n218.3892,3.999125\n218.6998,3.992289\n220.3905,3.953058\n220.7010,3.945450\n220.7010,3.953058\n220.9771,3.938574\n220.9771,3.945450\n221.2531,3.938574\n221.8397,3.923591\n222.1157,3.916357\n222.1157,3.923591\n222.4263,3.916357\n222.7023,3.909001\n222.9783,3.900573\n222.9783,3.909001\n223.2544,3.892942\n223.5649,3.892942\n224.1170,3.877266\n224.4275,3.868193\n224.4275,3.877266\n224.7036,3.868193\n225.2902,3.851579\n225.5662,3.851579\n225.8422,3.841947\n226.1528,3.833202\n226.1528,3.841947\n226.4288,3.833202\n226.9809,3.814012\n227.2914,3.814012\n227.5675,3.804680\n227.8435,3.804680\n228.1541,3.795142\n228.4301,3.784156\n228.4301,3.795142\n228.7061,3.784156\n229.0167,3.774152\n229.2927,3.774152\n229.5687,3.763912\n230.4314,3.753425\n230.4314,3.763912\n230.7074,3.741315\n231.2940,3.730261\n231.2940,3.741315\n231.8806,3.718917\n231.8806,3.730261\n232.4326,3.705791\n232.4326,3.718917\n233.0192,3.705791\n233.2953,3.693781\n233.8818,3.693781\n234.1579,3.681430\n234.7445,3.681430\n235.0205,3.667101\n235.8831,3.653954\n235.8831,3.667101\n237.0218,3.640398\n237.0218,3.653954\n238.7470,3.626404\n238.7470,3.640398\n244.7508,3.626404\n245.0614,3.640398\n245.9240,3.640398\n246.2000,3.653954\n247.0627,3.653954\n247.3387,3.667101\n247.9253,3.667101\n248.2013,3.681430\n248.4773,3.681430\n248.7879,3.693781\n249.3400,3.693781\n249.9265,3.718917\n250.2026,3.718917\n250.5131,3.730261\n250.7892,3.730261\n251.0652,3.741315\n251.3412,3.741315\n251.6518,3.753425\n251.9278,3.753425\n252.5144,3.774152\n252.7904,3.774152\n253.3770,3.795142\n253.6531,3.795142\n254.2051,3.814012\n254.5157,3.824277\n254.5157,3.814012\n254.7917,3.824277\n255.3783,3.841947\n255.6543,3.841947\n257.1035,3.885175\n257.3796,3.885175\n258.2422,3.916357\n258.2422,3.909001\n258.5182,3.923591\n258.5182,3.916357\n258.7943,3.923591\n259.6569,3.953058\n259.6569,3.945450\n259.9674,3.959710\n259.9674,3.953058\n260.2435,3.959710\n260.5195,3.973516\n260.5195,3.966261\n261.1061,3.986121\n261.3821,3.992289\n261.3821,3.986121\n262.2447,4.017567\n262.2447,4.011018\n262.5208,4.023307\n262.5208,4.017567\n263.9700,4.057559\n263.9700,4.052257\n264.2460,4.062797\n264.2460,4.057559\n264.8326,4.078770\n264.8326,4.073722\n265.6952,4.098993\n265.6952,4.094176\n266.5578,4.118316\n266.5578,4.113710\n266.8339,4.123440\n266.8339,4.118316\n267.1099,4.132403\n267.1099,4.127945\n267.6965,4.146047\n267.6965,4.141728\n268.2486,4.159276\n268.2486,4.155087\n268.5591,4.168047\n268.5591,4.163942\n269.1112,4.180632\n269.1112,4.176143\n269.4217,4.188499\n269.4217,4.184583\n269.9738,4.200512\n269.9738,4.196704\n270.2843,4.208496\n270.2843,4.204757\n270.8364,4.219976\n270.8364,4.216335\n271.1470,4.227167\n271.1470,4.223586\n271.6990,4.238170\n271.6990,4.234680\n271.9751,4.245496\n271.9751,4.242064\n272.5617,4.259374\n272.5617,4.252701\n272.8377,4.266354\n272.8377,4.262673\n273.4243,4.276418\n273.4243,4.272822\n273.7003,4.282740\n273.7003,4.279590\n274.0109,4.289356\n274.0109,4.286255\n274.2869,4.295874\n274.2869,4.292436\n274.5629,4.301920\n274.5629,4.298908\n274.8735,4.308253\n274.8735,4.304912\n275.1495,4.314131\n275.1495,4.311202\n275.4256,4.320289\n275.4256,4.317402\n275.7016,4.326362\n275.7016,4.323158\n276.0121,4.332001\n276.0121,4.329190\n276.2882,4.337913\n276.2882,4.335141\n276.5642,4.343405\n276.5642,4.340668\n276.8748,4.349165\n276.8748,4.346464\n277.1508,4.354849\n277.1508,4.349165\n277.4268,4.360132\n277.4268,4.357499\n277.7374,4.365676\n277.7374,4.363076\n278.0134,4.371150\n278.0134,4.368260\n278.5655,4.378762\n278.5655,4.376239\n278.8760,4.384074\n278.8760,4.381582\n279.1521,4.389322\n279.1521,4.386552\n279.7386,4.396927\n279.7386,4.394204\n280.0147,4.401725\n280.0147,4.399332\n280.8773,4.411456\n280.8773,4.409117\n281.1533,4.414073\n281.1533,4.411456\n282.0160,4.425797\n282.0160,4.421259\n282.2920,4.428329\n282.2920,4.425797\n282.6025,4.430567\n282.6025,4.428329\n282.8786,4.432794\n282.8786,4.430567\n283.1546,4.435009\n283.1546,4.432794\n284.0172,4.444300\n284.0172,4.441860\n284.3278,4.446458\n284.3278,4.444300\n284.6038,4.451007\n284.6038,4.448605\n284.8799,4.455246\n284.8799,4.453132\n285.1904,4.457613\n285.1904,4.455246\n287.1917,4.472560\n287.4677,4.474582\n287.4677,4.472560\n288.0543,4.476595\n288.0543,4.474582\n288.6064,4.476595\n288.9169,4.478848\n291.1942,4.478848\n291.4703,4.476595\n291.7808,4.474582\n291.7808,4.476595\n292.0568,4.472560\n292.0568,4.474582\n292.3329,4.470274\n292.3329,4.472560\n292.6089,4.468232\n292.6089,4.470274\n292.9195,4.463860\n292.9195,4.468232\n293.1955,4.459705\n293.1955,4.461788\n293.4715,4.453132\n293.4715,4.459705\n293.7821,4.448605\n293.7821,4.453132\n294.0581,4.444300\n294.0581,4.446458\n294.3342,4.437488\n294.3342,4.441860\n294.6447,4.430567\n294.6447,4.437488\n294.9207,4.421259\n294.9207,4.430567\n295.1968,4.411456\n295.1968,4.418686\n295.5073,4.404104\n295.5073,4.409117\n295.7834,4.396927\n295.7834,4.404104\n296.0594,4.386552\n296.0594,4.394204\n296.3354,4.376239\n296.3354,4.384074\n296.6460,4.371150\n296.6460,4.373702\n296.9220,4.360132\n296.9220,4.368260\n297.1981,4.351849\n297.1981,4.357499\n297.5086,4.346464\n297.5086,4.349165\n297.7846,4.337913\n297.7846,4.343405\n298.0607,4.329190\n298.0607,4.335141\n298.3712,4.320289\n298.3712,4.326362\n298.6472,4.314131\n298.6472,4.317402\n298.9233,4.304912\n298.9233,4.311202\n299.2338,4.295874\n299.2338,4.301920\n299.5099,4.289356\n299.5099,4.295874\n299.7859,4.279590\n299.7859,4.286255\n300.0619,4.272822\n300.0619,4.276418\n300.3725,4.262673\n300.3725,4.269600\n300.6485,4.256050\n300.6485,4.259374\n300.9246,4.245496\n300.9246,4.252701\n301.2351,4.238170\n301.2351,4.242064\n301.5111,4.227167\n301.5111,4.234680\n301.7872,4.219976\n301.7872,4.227167\n302.0977,4.212203\n302.0977,4.219976\n302.3738,4.204757\n302.3738,4.212203\n302.6498,4.196704\n302.6498,4.200512\n302.9258,4.188499\n302.9258,4.192862\n303.2364,4.180632\n303.2364,4.184583\n303.5124,4.172114\n303.5124,4.176143\n303.7885,4.163942\n303.7885,4.168047\n304.0990,4.155087\n304.0990,4.159276\n304.3750,4.146047\n304.3750,4.150856\n304.6511,4.132403\n304.6511,4.141728\n304.9616,4.127945\n304.9616,4.132403\n305.2377,4.118316\n305.2377,4.123440\n305.5137,4.109055\n305.5137,4.113710\n305.8242,4.098993\n305.8242,4.104349\n306.1003,4.094176\n306.1003,4.098993\n306.3763,4.083759\n306.3763,4.089305\n306.6524,4.073722\n306.6524,4.078770\n307.2389,4.052257\n307.2389,4.062797\n307.5150,4.046213\n307.5150,4.052257\n307.8255,4.035258\n307.8255,4.040770\n308.1016,4.028972\n308.1016,4.035258\n308.3776,4.017567\n308.3776,4.023307\n308.6881,4.011018\n308.6881,4.017567\n308.9642,3.999125\n308.9642,4.005112\n309.2402,3.992289\n309.2402,3.999125\n309.8268,3.973516\n309.8268,3.979864\n310.6894,3.945450\n310.6894,3.953058\n311.8281,3.909001\n311.8281,3.916357\n312.6907,3.885175\n312.9667,3.877266\n312.9667,3.885175\n313.2773,3.859965\n313.2773,3.868193\n313.5533,3.851579\n313.5533,3.859965\n313.8293,3.851579\n314.1054,3.833202\n314.1054,3.841947\n314.4159,3.824277\n314.4159,3.833202\n314.6920,3.814012\n314.6920,3.824277\n314.9680,3.804680\n314.9680,3.814012\n315.2785,3.804680\n316.1412,3.763912\n316.1412,3.774152\n316.4172,3.763912\n316.6932,3.753425\n316.9693,3.741315\n316.9693,3.753425\n317.2798,3.730261\n317.5559,3.718917\n317.5559,3.730261\n317.8319,3.705791\n318.1424,3.693781\n318.1424,3.705791\n318.4185,3.693781\n318.6945,3.681430\n319.0051,3.667101\n319.0051,3.681430\n319.2811,3.653954\n319.2811,3.667101\n319.5571,3.653954\n320.1437,3.626404\n320.4197,3.610103\n320.4197,3.626404\n320.6958,3.610103\n321.0063,3.595081\n321.2824,3.595081\n321.5584,3.579520\n321.8689,3.561321\n321.8689,3.579520\n322.1450,3.544478\n322.1450,3.561321\n322.4210,3.544478\n322.7316,3.526956\n323.0076,3.506359\n323.0076,3.526956\n323.2836,3.506359\n323.5942,3.487193\n323.8702,3.467141\n323.8702,3.487193\n324.1463,3.443419\n324.1463,3.467141\n324.7328,3.421186\n324.7328,3.443419\n325.0089,3.421186\n325.2849,3.397753\n325.5955,3.372983\n325.5955,3.397753\n325.8715,3.372983\n326.1475,3.343317\n326.4581,3.343317\n326.7341,3.315130\n327.0102,3.284986\n327.0102,3.315130\n327.5967,3.248368\n327.5967,3.284986\n328.1488,3.213006\n328.1488,3.248368\n328.7354,3.174507\n328.7354,3.213006\n329.3220,3.126678\n329.3220,3.174507\n329.8740,3.079235\n329.8740,3.126678\n330.4606,3.079235\n330.7367,3.025966\n331.0127,3.025966\n331.3232,2.957013\n331.5993,2.957013\n331.8753,2.884922\n332.4619,2.798435\n332.4619,2.884922\n332.7379,2.798435\n333.0485,2.690331\n##END=\n'