b"##TITLE=Acetaldoxime\n##JCAMP-DX=4.24\n##DATA TYPE=UV/VIS SPECTRUM\n##ORIGIN=INSTITUTE OF ENERGY PROBLEMS OF CHEMICAL PHYSICS, RAS\n##OWNER=INEP CP RAS, NIST OSRD\nCollection (C) 2007 copyright by the U.S. Secretary of Commerce\non behalf of the United States of America. All rights reserved.\n##CAS REGISTRY NO=107-29-9\n##MOLFORM=C2H5NO\n##MP=45\n##BP=115\n##SOURCE REFERENCE=RAS UV No. 2847\n##$NIST SQUIB=1948GRA979-990\n##$NIST SOURCE=TSGMTE\n##SPECTROMETER/DATA SYSTEM=n.i.g.\n##XUNITS=Wavelength (nm)\n##YUNITS=Logarithm epsilon\n##XFACTOR=1.000000\n##YFACTOR=1.000000\n##FIRSTX=254.8698\n##LASTX=226.4632\n##FIRSTY=0.139155\n##MAXX=254.87\n##MINX=226.463\n##MAXY=2.01771\n##MINY=0.139155\n##NPOINTS=65\n##$REF AUTHOR=Grammaticakis, P.\n##$REF TITLE=Contribution a l'etude de l'absorption dans l'ultraviolet moyen et dans le visible des chromophores complexes. I. Effets spectraux de phenylation\n##$REF JOURNAL=Bull. Soc. Chim. Fr.\n##$REF VOLUME=15\n##$REF PAGE=979-990\n##$REF DATE=1948\n##XYPOINTS=(XY..XY)\n254.8698,0.139155\n254.2735,0.187295\n253.9424,0.217984\n253.6616,0.249321\n253.6616,0.249321\n253.5432,0.252076\n253.4249,0.254814\n253.3068,0.257535\n253.3068,0.257535\n253.2122,0.267453\n252.9946,0.286995\n252.6697,0.314962\n252.2538,0.350073\n251.7630,0.391129\n251.2132,0.436910\n250.6204,0.486147\n250.0002,0.537643\n249.3679,0.590139\n248.7386,0.642415\n248.1272,0.693243\n247.5479,0.741388\n247.0152,0.785615\n246.5430,0.824692\n246.1451,0.857393\n245.8354,0.882479\n245.6277,0.898720\n245.5359,0.904883\n245.5359,0.904883\n245.4636,0.922881\n245.3167,0.935935\n244.9701,0.955250\n244.9701,0.955250\n244.5068,0.991824\n244.0401,1.028299\n243.5706,1.064679\n243.0985,1.100966\n242.6242,1.137164\n242.1483,1.173282\n241.6710,1.209322\n241.1927,1.245286\n240.7139,1.281179\n240.2348,1.317006\n239.7558,1.352771\n239.2774,1.388478\n238.7998,1.424130\n238.3235,1.459732\n237.8487,1.495289\n237.8487,1.495289\n237.3444,1.520638\n236.7416,1.557700\n236.2422,1.584350\n236.2422,1.584350\n235.6113,1.622714\n234.9416,1.660286\n234.2407,1.697220\n233.5161,1.733671\n232.7751,1.769794\n232.0251,1.805744\n231.2729,1.841677\n230.5254,1.877746\n230.5254,1.877746\n229.5008,1.912865\n228.4814,1.947874\n227.4685,1.982811\n226.4632,2.017711\n##END=\n"