b'##TITLE=2-Propenal\n##JCAMP-DX=4.24\n##DATA TYPE=UV/VIS SPECTRUM\n##ORIGIN=INSTITUTE OF ENERGY PROBLEMS OF CHEMICAL PHYSICS, RAS\n##OWNER=INEP CP RAS, NIST OSRD\nCollection (C) 2007 copyright by the U.S. Secretary of Commerce\non behalf of the United States of America. All rights reserved.\n##CAS REGISTRY NO=107-02-8\n##MOLFORM=C3H4O\n##SOURCE REFERENCE=RAS UV No. 19941\n##$NIST SQUIB=1966COT/TIMb3/8\n##$NIST SOURCE=TYUGLMTE\n##SPECTROMETER/DATA SYSTEM=Unicam SP 700\n##XUNITS=Wavelength (nm)\n##YUNITS=Logarithm epsilon\n##XFACTOR=1.0\n##YFACTOR=1.0\n##FIRSTX=191.68\n##LASTX=392.76\n##FIRSTY=3.733\n##MAXX=392.76\n##MINX=191.68\n##MAXY=4.064\n##MINY=0.204\n##NPOINTS=309\n##$REF AUTHOR=Cottee, F.H.; Timmons, C.J.\n##$REF JOURNAL=UV atlas of organic compounds\n##$REF VOLUME=1\n##$REF PAGE=B3/8\n##$REF DATE=1966\n##XYPOINTS=(XY..XY)\n191.68,3.733\n191.91,3.752\n192.15,3.771\n192.39,3.791\n192.71,3.808\n192.94,3.827\n193.18,3.846\n193.50,3.863\n193.75,3.883\n194.15,3.900\n194.47,3.917\n194.80,3.934\n195.20,3.949\n195.61,3.966\n196.02,3.981\n196.35,3.998\n196.94,4.011\n197.52,4.024\n198.11,4.034\n198.78,4.043\n199.46,4.049\n200.06,4.060\n200.83,4.060\n201.61,4.064\n202.40,4.062\n203.20,4.056\n203.91,4.049\n204.71,4.043\n205.43,4.032\n206.07,4.022\n206.98,3.987\n207.07,3.985\n207.16,3.985\n207.26,3.983\n207.35,3.981\n207.44,3.979\n207.53,3.977\n207.63,3.977\n207.72,3.974\n207.81,3.972\n207.90,3.970\n208.37,3.957\n208.83,3.940\n209.30,3.923\n209.77,3.895\n210.24,3.872\n210.72,3.840\n211.20,3.808\n211.68,3.773\n212.16,3.739\n212.64,3.701\n213.13,3.662\n213.61,3.626\n214.10,3.577\n214.60,3.523\n215.09,3.455\n215.59,3.397\n216.09,3.314\n216.59,3.207\n217.09,3.143\n217.60,3.070\n218.11,3.006\n218.62,2.922\n219.13,2.843\n219.65,2.790\n220.16,2.736\n220.69,2.689\n221.21,2.638\n221.73,2.589\n222.26,2.548\n222.79,2.495\n223.33,2.461\n223.86,2.424\n224.40,2.392\n224.94,2.354\n225.48,2.322\n226.03,2.287\n226.58,2.245\n227.13,2.208\n227.68,2.176\n228.24,2.127\n228.80,2.071\n229.36,2.005\n229.93,1.954\n230.50,1.900\n231.07,1.845\n231.64,1.785\n232.22,1.725\n232.80,1.674\n233.38,1.620\n233.96,1.571\n234.55,1.522\n235.14,1.466\n235.74,1.404\n236.33,1.334\n236.93,1.252\n237.54,1.167\n238.14,1.071\n238.75,0.957\n239.36,0.885\n239.98,0.825\n240.60,0.778\n241.22,0.731\n241.85,0.677\n242.47,0.626\n243.11,0.583\n243.74,0.542\n244.38,0.508\n245.02,0.476\n247.23,0.431\n248.28,0.421\n249.47,0.414\n250.68,0.414\n251.90,0.416\n252.85,0.427\n253.82,0.440\n254.79,0.453\n255.62,0.465\n256.75,0.472\n257.88,0.478\n259.03,0.489\n260.04,0.502\n260.77,0.517\n261.79,0.530\n263.12,0.532\n264.46,0.534\n265.82,0.534\n267.19,0.532\n268.57,0.534\n269.66,0.547\n270.60,0.560\n271.86,0.570\n273.13,0.581\n274.25,0.592\n275.55,0.600\n276.69,0.611\n277.68,0.624\n278.68,0.637\n279.68,0.649\n280.69,0.664\n281.87,0.677\n282.90,0.690\n283.76,0.705\n284.80,0.718\n285.67,0.733\n286.55,0.748\n287.79,0.758\n289.21,0.767\n290.47,0.778\n291.56,0.790\n292.48,0.808\n293.58,0.823\n294.51,0.840\n295.44,0.857\n296.38,0.872\n297.32,0.887\n298.27,0.902\n299.04,0.919\n300.02,0.937\n301.15,0.953\n301.94,0.966\n302.92,0.983\n303.71,1.000\n304.30,1.019\n305.30,1.036\n306.10,1.054\n307.31,1.068\n308.32,1.086\n309.55,1.101\n310.58,1.118\n311.62,1.133\n313.08,1.145\n314.36,1.159\n316.00,1.171\n317.21,1.182\n318.51,1.194\n319.73,1.205\n321.05,1.218\n322.60,1.231\n323.95,1.244\n325.40,1.252\n326.96,1.258\n328.23,1.261\n328.95,1.262\n329.31,1.262\n329.60,1.263\n329.89,1.263\n330.18,1.264\n330.54,1.264\n331.12,1.266\n331.59,1.267\n332.06,1.268\n332.55,1.270\n332.96,1.272\n333.44,1.276\n333.93,1.282\n334.39,1.289\n334.82,1.294\n335.36,1.299\n335.70,1.303\n336.23,1.307\n336.81,1.308\n337.31,1.307\n337.78,1.302\n338.23,1.293\n338.76,1.287\n339.26,1.280\n339.67,1.275\n340.25,1.272\n340.74,1.269\n341.25,1.267\n341.69,1.266\n342.20,1.264\n342.75,1.263\n343.25,1.263\n343.79,1.264\n344.26,1.267\n344.77,1.269\n345.28,1.272\n345.79,1.272\n346.31,1.272\n346.82,1.272\n347.33,1.273\n347.73,1.276\n348.24,1.280\n348.64,1.284\n349.07,1.287\n349.47,1.290\n349.87,1.292\n350.16,1.293\n350.47,1.291\n350.77,1.287\n351.00,1.282\n351.52,1.261\n352.06,1.242\n352.59,1.220\n353.12,1.199\n353.66,1.173\n354.19,1.150\n354.73,1.137\n355.27,1.120\n355.81,1.116\n356.36,1.109\n356.90,1.107\n357.45,1.098\n358.00,1.090\n358.55,1.088\n359.10,1.088\n359.65,1.090\n360.21,1.096\n360.77,1.096\n361.32,1.090\n361.88,1.086\n362.45,1.079\n363.01,1.077\n363.58,1.077\n364.14,1.075\n364.71,1.077\n365.28,1.086\n365.86,1.094\n366.43,1.103\n367.02,1.104\n367.59,1.094\n367.91,1.084\n368.17,1.064\n368.37,1.035\n368.75,1.004\n369.21,0.980\n369.92,0.968\n370.50,0.964\n371.09,0.959\n371.43,0.948\n371.69,0.929\n371.93,0.904\n372.28,0.880\n372.87,0.857\n373.47,0.831\n374.07,0.808\n374.67,0.793\n375.25,0.770\n375.88,0.741\n376.48,0.703\n377.02,0.683\n377.70,0.679\n378.31,0.681\n378.93,0.684\n379.55,0.684\n380.16,0.681\n380.78,0.679\n381.41,0.671\n382.03,0.662\n382.66,0.643\n383.29,0.639\n383.92,0.652\n384.55,0.664\n385.19,0.679\n385.82,0.690\n386.46,0.694\n387.10,0.694\n387.75,0.692\n388.39,0.688\n389.04,0.679\n389.69,0.658\n390.34,0.609\n390.99,0.538\n391.39,0.463\n391.73,0.395\n392.16,0.313\n392.76,0.204\n##END=\n'