b'##TITLE=Crotonic acid\n##JCAMP-DX=4.24\n##DATA TYPE=UV/VIS SPECTRUM\n##ORIGIN=INSTITUTE OF ENERGY PROBLEMS OF CHEMICAL PHYSICS, RAS\n##OWNER=INEP CP RAS, NIST OSRD\nCollection (C) 2007 copyright by the U.S. Secretary of Commerce\non behalf of the United States of America. All rights reserved.\n##CAS REGISTRY NO=107-93-7\n##MOLFORM=C4H6O2\n##MP=72\n##BP=184.7\n##SOURCE REFERENCE=RAS UV No. 10568\n##$NIST SQUIB=1947DAN427\n##$NIST SOURCE=TYUGLMTE\n##SPECTROMETER/DATA SYSTEM=n.i.g.\n##XUNITS=Wavelength (nm)\n##YUNITS=Logarithm epsilon\n##XFACTOR=1.0\n##YFACTOR=1.0\n##FIRSTX=200.12\n##LASTX=227.07\n##FIRSTY=4.409\n##MAXX=227.07\n##MINX=200.12\n##MAXY=4.424\n##MINY=3.96\n##NPOINTS=67\n##$REF AUTHOR=Dann, O.\n##$REF JOURNAL=Chem. Ber.\n##$REF VOLUME=80\n##$REF PAGE=427\n##$REF DATE=1947\n##XYPOINTS=(XY..XY)\n200.12,4.409\n200.24,4.409\n200.35,4.410\n200.47,4.410\n200.59,4.411\n200.71,4.412\n200.83,4.412\n200.95,4.413\n201.06,4.413\n201.18,4.414\n201.30,4.415\n201.42,4.415\n201.54,4.416\n202.01,4.418\n202.48,4.420\n202.96,4.421\n203.43,4.422\n203.90,4.424\n204.37,4.424\n204.85,4.424\n205.32,4.424\n205.79,4.424\n206.26,4.424\n206.74,4.423\n207.21,4.422\n207.68,4.421\n208.16,4.420\n208.63,4.419\n209.10,4.418\n209.57,4.415\n210.05,4.409\n210.52,4.406\n210.99,4.397\n211.47,4.384\n211.94,4.370\n212.41,4.359\n212.88,4.345\n213.36,4.335\n213.83,4.322\n214.30,4.304\n214.78,4.287\n215.25,4.268\n215.72,4.251\n216.19,4.236\n216.67,4.217\n217.14,4.199\n217.61,4.177\n218.09,4.152\n218.56,4.131\n219.03,4.103\n219.50,4.083\n219.98,4.068\n220.45,4.054\n220.92,4.045\n221.39,4.033\n221.87,4.021\n222.34,4.011\n222.81,4.001\n223.29,3.996\n223.76,3.990\n224.23,3.985\n224.70,3.978\n225.18,3.974\n225.65,3.970\n226.12,3.968\n226.60,3.964\n227.07,3.960\n##END=\n'