b'##TITLE=2-Propenenitrile\n##JCAMP-DX=4.24\n##DATA TYPE=UV/VIS SPECTRUM\n##ORIGIN=INSTITUTE OF ENERGY PROBLEMS OF CHEMICAL PHYSICS, RAS\n##OWNER=INEP CP RAS, NIST OSRD\nCollection (C) 2007 copyright by the U.S. Secretary of Commerce\non behalf of the United States of America. All rights reserved.\n##CAS REGISTRY NO=107-13-1\n##MOLFORM=C3H3N\n##BP=77.3\n##SOURCE REFERENCE=RAS UV No. 20145\n##$NIST SQUIB=1969FIH/15\n##$NIST SOURCE=TYUGLMTE\n##SPECTROMETER/DATA SYSTEM=SF-4\n##XUNITS=Wavelength (nm)\n##YUNITS=Logarithm epsilon\n##XFACTOR=1.0\n##YFACTOR=1.0\n##FIRSTX=201.97\n##LASTX=224.63\n##FIRSTY=3.568\n##MAXX=224.63\n##MINX=201.97\n##MAXY=3.677\n##MINY=1.65\n##NPOINTS=99\n##$REF AUTHOR=Fihtengolts, V.S.; et al.\n##$REF JOURNAL=Atlas of UV Absorption Spectra of Substances Used in Synthetic Rubber Manufacture\n##$REF PAGE=15\n##$REF DATE=1969\n##XYPOINTS=(XY..XY)\n201.97,3.568\n202.06,3.578\n202.15,3.587\n202.23,3.596\n202.36,3.605\n202.49,3.613\n202.70,3.621\n202.83,3.628\n203.00,3.635\n203.18,3.643\n203.30,3.650\n203.52,3.656\n203.78,3.662\n203.99,3.668\n204.29,3.672\n204.63,3.676\n205.02,3.677\n205.41,3.674\n205.75,3.670\n206.01,3.664\n206.27,3.658\n206.48,3.652\n206.69,3.645\n206.91,3.639\n207.12,3.632\n207.34,3.625\n207.55,3.618\n207.68,3.610\n207.90,3.603\n208.07,3.595\n208.28,3.588\n208.41,3.580\n208.63,3.573\n208.80,3.564\n209.01,3.556\n209.18,3.547\n209.40,3.538\n209.53,3.529\n209.70,3.519\n209.87,3.510\n210.08,3.500\n210.26,3.490\n210.47,3.480\n210.60,3.470\n210.81,3.459\n210.99,3.448\n211.16,3.437\n211.33,3.425\n211.46,3.413\n211.63,3.401\n211.84,3.390\n211.97,3.377\n212.19,3.364\n212.32,3.350\n212.49,3.336\n212.62,3.322\n212.79,3.307\n212.96,3.291\n213.17,3.275\n213.30,3.256\n213.48,3.238\n213.60,3.220\n213.78,3.200\n213.95,3.180\n214.16,3.159\n214.33,3.137\n214.55,3.114\n214.76,3.089\n214.98,3.066\n215.19,3.039\n215.41,3.009\n215.66,2.982\n215.88,2.952\n216.14,2.921\n216.39,2.892\n216.65,2.861\n216.91,2.822\n217.21,2.785\n217.51,2.752\n217.81,2.716\n218.11,2.668\n218.41,2.624\n218.72,2.570\n219.01,2.518\n219.31,2.464\n219.64,2.399\n220.00,2.326\n220.34,2.266\n220.77,2.207\n221.16,2.156\n221.56,2.110\n221.93,2.066\n222.26,2.021\n222.72,1.964\n223.09,1.906\n223.47,1.855\n223.86,1.796\n224.25,1.729\n224.63,1.650\n##END=\n'