b'##TITLE=2-Propen-1-amine\n##JCAMP-DX=4.24\n##DATA TYPE=UV/VIS SPECTRUM\n##ORIGIN=INSTITUTE OF ENERGY PROBLEMS OF CHEMICAL PHYSICS, RAS\n##OWNER=INEP CP RAS, NIST OSRD\nCollection (C) 2007 copyright by the U.S. Secretary of Commerce\non behalf of the United States of America. All rights reserved.\n##CAS REGISTRY NO=107-11-9\n##MOLFORM=C3H7N\n##BP=53-54\n##SOURCE REFERENCE=RAS UV No. 19919\n##$NIST SQUIB=1966PER/BRAa1/12\n##$NIST SOURCE=TYUGLMTE\n##SPECTROMETER/DATA SYSTEM=Zeiss PMQ II\n##XUNITS=Wavelength (nm)\n##YUNITS=Logarithm epsilon\n##XFACTOR=1.0\n##YFACTOR=1.0\n##FIRSTX=182.96\n##LASTX=245.8\n##FIRSTY=3.931\n##MAXX=245.8\n##MINX=182.96\n##MAXY=3.931\n##MINY=1.008\n##NPOINTS=164\n##$REF AUTHOR=Perkampus, H.-H.; Braunschweig, T.H.\n##$REF JOURNAL=UV atlas of organic compounds\n##$REF VOLUME=1\n##$REF PAGE=A1/12\n##$REF DATE=1966\n##XYPOINTS=(XY..XY)\n182.96,3.931\n183.31,3.916\n183.60,3.899\n183.89,3.882\n184.25,3.865\n184.54,3.848\n184.91,3.833\n185.27,3.816\n185.64,3.799\n186.01,3.782\n186.31,3.765\n186.60,3.748\n186.98,3.730\n187.27,3.713\n187.58,3.696\n187.88,3.679\n188.18,3.662\n188.48,3.645\n188.79,3.628\n189.17,3.611\n189.47,3.594\n189.86,3.579\n190.24,3.562\n190.63,3.547\n191.02,3.532\n191.41,3.517\n191.88,3.502\n192.28,3.487\n192.75,3.472\n193.31,3.459\n193.87,3.447\n194.43,3.434\n194.92,3.421\n195.49,3.410\n196.06,3.398\n196.64,3.387\n197.30,3.376\n197.97,3.366\n198.64,3.355\n199.32,3.344\n200.00,3.334\n200.69,3.325\n201.46,3.319\n202.16,3.310\n202.86,3.302\n203.57,3.293\n204.37,3.289\n205.08,3.280\n205.80,3.272\n206.53,3.261\n207.26,3.250\n208.00,3.240\n208.65,3.229\n209.30,3.216\n209.87,3.201\n210.53,3.188\n211.19,3.176\n211.67,3.161\n212.24,3.148\n212.82,3.135\n213.31,3.121\n213.89,3.103\n214.31,3.089\n214.74,3.072\n215.08,3.058\n215.31,3.048\n215.57,3.033\n215.67,3.028\n215.77,3.024\n215.87,3.022\n215.97,3.018\n216.07,3.016\n216.17,3.011\n216.27,3.007\n216.37,3.005\n216.47,3.001\n216.54,2.996\n216.73,2.984\n216.98,2.970\n217.27,2.956\n217.57,2.941\n217.88,2.926\n218.18,2.913\n218.49,2.900\n218.79,2.886\n219.10,2.871\n219.41,2.858\n219.72,2.843\n220.03,2.830\n220.34,2.815\n220.65,2.802\n220.96,2.787\n221.28,2.775\n221.59,2.760\n221.91,2.745\n222.22,2.732\n222.54,2.717\n222.86,2.704\n223.18,2.681\n223.50,2.661\n223.82,2.636\n224.14,2.621\n224.46,2.600\n224.78,2.580\n225.11,2.559\n225.43,2.538\n225.76,2.512\n226.09,2.493\n226.42,2.469\n226.74,2.448\n227.07,2.425\n227.41,2.397\n227.74,2.371\n228.07,2.346\n228.40,2.312\n228.74,2.284\n229.07,2.254\n229.41,2.224\n229.75,2.198\n230.09,2.171\n230.43,2.141\n230.77,2.120\n231.11,2.090\n231.45,2.066\n231.80,2.041\n232.14,2.015\n232.49,1.989\n232.84,1.951\n233.18,1.925\n233.53,1.904\n233.88,1.876\n234.23,1.853\n234.59,1.823\n234.94,1.802\n235.29,1.780\n235.65,1.755\n236.01,1.731\n236.36,1.708\n236.72,1.686\n237.08,1.659\n237.44,1.637\n237.80,1.605\n238.17,1.582\n238.53,1.558\n238.90,1.531\n239.26,1.507\n239.63,1.479\n240.00,1.456\n240.37,1.428\n240.74,1.403\n241.11,1.375\n241.49,1.351\n241.86,1.324\n242.24,1.300\n242.61,1.270\n242.99,1.238\n243.37,1.208\n243.70,1.177\n244.09,1.141\n244.43,1.108\n244.65,1.083\n244.90,1.061\n245.29,1.034\n245.80,1.008\n##END=\n'