b"##TITLE=1-Propanethiol\n##JCAMP-DX=4.24\n##DATA TYPE=UV/VIS SPECTRUM\n##ORIGIN=INSTITUTE OF ENERGY PROBLEMS OF CHEMICAL PHYSICS, RAS\n##OWNER=INEP CP RAS, NIST OSRD\nCollection (C) 2007 copyright by the U.S. Secretary of Commerce\non behalf of the United States of America. All rights reserved.\n##CAS REGISTRY NO=107-03-9\n##MOLFORM=C3H8S\n##BP=67.8\n##SOURCE REFERENCE=RAS UV No. 20092\n##$NIST SQUIB=1969BOL/82\n##$NIST SOURCE=TYUGLMTE\n##SPECTROMETER/DATA SYSTEM=unknown\n##XUNITS=Wavelength (nm)\n##YUNITS=Logarithm epsilon\n##XFACTOR=1.0\n##YFACTOR=1.0\n##FIRSTX=208.98\n##LASTX=293.17\n##FIRSTY=2.49\n##MAXX=293.17\n##MINX=208.98\n##MAXY=2.49\n##MINY=0.041\n##NPOINTS=145\n##$REF AUTHOR=Bol'shakov, G.F.; et al.\n##$REF JOURNAL=Ultraviolet spectra of heteroorganic compounds\n##$REF PAGE=82\n##$REF DATE=1969\n##XYPOINTS=(XY..XY)\n208.98,2.490\n209.15,2.480\n209.35,2.468\n209.55,2.456\n209.83,2.442\n210.00,2.435\n210.17,2.427\n210.33,2.419\n210.50,2.411\n210.67,2.403\n210.83,2.395\n211.00,2.388\n211.17,2.380\n211.83,2.346\n212.50,2.306\n213.17,2.275\n213.83,2.233\n214.50,2.199\n215.17,2.160\n215.83,2.131\n216.50,2.113\n217.17,2.097\n217.83,2.094\n218.50,2.092\n219.17,2.092\n219.83,2.092\n220.50,2.094\n221.17,2.097\n221.83,2.105\n222.50,2.108\n223.17,2.113\n223.83,2.121\n224.50,2.121\n225.17,2.128\n225.83,2.131\n226.50,2.134\n227.17,2.134\n227.83,2.134\n228.50,2.131\n229.17,2.131\n229.83,2.131\n230.50,2.131\n231.17,2.128\n231.83,2.126\n232.50,2.118\n233.17,2.113\n233.83,2.102\n234.50,2.097\n235.17,2.087\n235.83,2.081\n236.50,2.071\n237.17,2.060\n237.83,2.045\n238.50,2.029\n239.17,2.019\n239.83,2.003\n240.50,1.990\n241.17,1.974\n241.83,1.948\n242.50,1.932\n243.17,1.917\n243.83,1.896\n244.50,1.877\n245.17,1.851\n245.83,1.830\n246.50,1.799\n247.17,1.778\n247.83,1.744\n248.50,1.718\n249.17,1.692\n249.84,1.655\n250.50,1.624\n251.17,1.592\n251.84,1.558\n252.50,1.516\n253.17,1.482\n253.84,1.443\n254.50,1.414\n255.17,1.378\n255.84,1.351\n256.50,1.312\n257.17,1.283\n257.84,1.249\n258.50,1.218\n259.17,1.179\n259.84,1.155\n260.50,1.124\n261.17,1.092\n261.84,1.066\n262.50,1.030\n263.17,1.001\n263.84,0.967\n264.50,0.938\n265.17,0.912\n265.84,0.883\n266.50,0.854\n267.17,0.820\n267.84,0.797\n268.50,0.771\n269.17,0.745\n269.84,0.718\n270.50,0.692\n271.17,0.666\n271.84,0.642\n272.50,0.614\n273.17,0.590\n273.84,0.567\n274.50,0.540\n275.17,0.522\n275.84,0.499\n276.50,0.475\n277.17,0.452\n277.84,0.433\n278.50,0.407\n279.17,0.386\n280.04,0.357\n281.17,0.318\n281.34,0.315\n281.50,0.310\n281.67,0.308\n281.84,0.302\n282.00,0.297\n282.17,0.295\n282.34,0.289\n282.50,0.287\n282.67,0.281\n282.84,0.276\n283.00,0.274\n283.17,0.268\n283.34,0.266\n283.84,0.250\n284.50,0.234\n285.17,0.216\n285.84,0.200\n286.50,0.182\n287.17,0.166\n287.84,0.148\n288.50,0.130\n289.17,0.117\n289.84,0.104\n290.50,0.090\n291.17,0.080\n291.84,0.067\n292.50,0.054\n293.17,0.041\n##END=\n"