b'##TITLE=1,3,5-Triazine-2,4,6(1H,3H,5H)-trione\n##JCAMP-DX=4.24\n##DATA TYPE=UV/VIS SPECTRUM\n##ORIGIN=INSTITUTE OF ENERGY PROBLEMS OF CHEMICAL PHYSICS, RAS\n##OWNER=INEP CP RAS, NIST OSRD\nCollection (C) 2007 copyright by the U.S. Secretary of Commerce\non behalf of the United States of America. All rights reserved.\n##CAS REGISTRY NO=108-80-5\n##MOLFORM=C3H3N3O3\n##SOURCE REFERENCE=RAS UV No. 19961\n##$NIST SQUIB=1966JOHb11/9\n##$NIST SOURCE=TYUGLMTE\n##SPECTROMETER/DATA SYSTEM=Unicam SP 500\n##XUNITS=Wavelength (nm)\n##YUNITS=Logarithm epsilon\n##XFACTOR=1.0\n##YFACTOR=1.0\n##FIRSTX=192.25\n##LASTX=223.83\n##FIRSTY=3.765\n##MAXX=223.83\n##MINX=192.25\n##MAXY=3.765\n##MINY=1.128\n##NPOINTS=68\n##$REF AUTHOR=Johnson, E.A.\n##$REF JOURNAL=UV atlas of organic compounds\n##$REF VOLUME=1\n##$REF PAGE=B11/9\n##$REF DATE=1966\n##XYPOINTS=(XY..XY)\n192.25,3.765\n192.32,3.760\n192.40,3.756\n192.48,3.750\n192.56,3.745\n192.64,3.741\n192.72,3.737\n192.80,3.733\n192.88,3.726\n192.96,3.722\n193.04,3.718\n193.12,3.713\n193.20,3.711\n193.68,3.670\n194.17,3.632\n194.65,3.589\n195.14,3.555\n195.64,3.514\n196.13,3.474\n196.63,3.433\n197.13,3.392\n197.63,3.356\n198.13,3.311\n198.64,3.268\n199.15,3.223\n199.66,3.163\n200.17,3.110\n200.69,3.050\n201.21,2.996\n201.73,2.919\n202.26,2.855\n202.79,2.791\n203.32,2.723\n203.85,2.650\n204.39,2.588\n204.93,2.524\n205.47,2.464\n206.02,2.412\n206.56,2.367\n207.11,2.320\n207.67,2.280\n208.22,2.241\n208.78,2.205\n209.35,2.164\n209.91,2.117\n210.48,2.083\n211.05,2.049\n211.63,2.016\n212.21,1.986\n212.79,1.952\n213.37,1.920\n213.96,1.890\n214.55,1.858\n215.15,1.824\n215.74,1.787\n216.35,1.749\n216.95,1.713\n217.56,1.672\n218.17,1.631\n218.78,1.595\n219.40,1.539\n220.02,1.496\n220.65,1.449\n221.28,1.400\n221.91,1.345\n222.55,1.276\n223.19,1.210\n223.83,1.128\n##END=\n'