b'##TITLE=Acetic acid ethenyl ester\n##JCAMP-DX=4.24\n##DATA TYPE=UV/VIS SPECTRUM\n##ORIGIN=INSTITUTE OF ENERGY PROBLEMS OF CHEMICAL PHYSICS, RAS\n##OWNER=INEP CP RAS, NIST OSRD\nCollection (C) 2007 copyright by the U.S. Secretary of Commerce\non behalf of the United States of America. All rights reserved.\n##CAS REGISTRY NO=108-05-4\n##MOLFORM=C4H6O2\n##MP=- 93.2\n##BP=72.5\n##SOURCE REFERENCE=RAS UV No. 10573\n##$NIST SQUIB=1947BUR/MEL456\n##$NIST SOURCE=TYUGLMTE\n##SPECTROMETER/DATA SYSTEM=Hilger quartz spectrograph\n##XUNITS=Wavelength (nm)\n##YUNITS=Logarithm epsilon\n##XFACTOR=1.0\n##YFACTOR=1.0\n##FIRSTX=260.54\n##LASTX=279.09\n##FIRSTY=0.276\n##MAXX=279.09\n##MINX=260.54\n##MAXY=0.276\n##MINY=0.014\n##NPOINTS=78\n##$REF AUTHOR=Burnett, G.M.; Melville, H.W.\n##$REF JOURNAL=Proc. Roy. Soc.\n##$REF VOLUME=189A\n##$REF PAGE=456\n##$REF DATE=1947\n##XYPOINTS=(XY..XY)\n260.54,0.276\n260.74,0.271\n260.94,0.266\n261.11,0.262\n261.31,0.258\n261.55,0.254\n261.75,0.250\n261.95,0.246\n262.15,0.241\n262.35,0.237\n262.59,0.234\n262.79,0.230\n263.03,0.226\n263.23,0.221\n263.43,0.217\n263.70,0.214\n263.93,0.211\n264.20,0.207\n264.44,0.204\n264.71,0.201\n264.97,0.198\n265.24,0.195\n265.48,0.192\n265.68,0.188\n265.98,0.187\n266.25,0.185\n266.52,0.183\n266.72,0.179\n267.03,0.179\n267.33,0.177\n267.60,0.174\n267.90,0.172\n268.13,0.169\n268.40,0.166\n268.67,0.164\n268.91,0.160\n269.14,0.156\n269.38,0.153\n269.61,0.149\n269.85,0.145\n270.05,0.141\n270.25,0.137\n270.45,0.132\n270.69,0.128\n270.89,0.124\n271.09,0.120\n271.29,0.115\n271.50,0.111\n271.70,0.107\n271.93,0.103\n272.13,0.099\n272.37,0.095\n272.64,0.091\n272.87,0.088\n273.11,0.085\n273.38,0.081\n273.61,0.078\n273.85,0.074\n274.08,0.071\n274.35,0.068\n274.62,0.064\n274.89,0.061\n275.16,0.058\n275.39,0.054\n275.66,0.051\n275.93,0.048\n276.17,0.045\n276.44,0.042\n276.71,0.039\n276.94,0.035\n277.21,0.032\n277.48,0.030\n277.75,0.027\n278.02,0.024\n278.29,0.022\n278.55,0.020\n278.82,0.017\n279.09,0.014\n##END=\n'