b'##TITLE=Cyanuric chloride\n##JCAMP-DX=4.24\n##DATA TYPE=UV/VIS SPECTRUM\n##ORIGIN=INSTITUTE OF ENERGY PROBLEMS OF CHEMICAL PHYSICS, RAS\n##OWNER=INEP CP RAS, NIST OSRD\nCollection (C) 2007 copyright by the U.S. Secretary of Commerce\non behalf of the United States of America. All rights reserved.\n##CAS REGISTRY NO=108-77-0\n##MOLFORM=C3Cl3N3\n##MP=154\n##BP=192\n##SOURCE REFERENCE=RAS UV No. 9280\n##$NIST SQUIB=1947KLO/ASK801\n##$NIST SOURCE=TYUGLMTE\n##SPECTROMETER/DATA SYSTEM=Beckman quartz spectrophotometer\n##XUNITS=Wavelength (nm)\n##YUNITS=Logarithm epsilon\n##XFACTOR=1.0\n##YFACTOR=1.0\n##FIRSTX=225.61\n##LASTX=256.27\n##FIRSTY=3.19\n##MAXX=256.27\n##MINX=225.61\n##MAXY=3.327\n##MINY=2.726\n##NPOINTS=99\n##$REF AUTHOR=Klotz, I.M.; Askounts, T.\n##$REF JOURNAL=J. Am. Chem. Soc.\n##$REF VOLUME=69\n##$REF PAGE=801\n##$REF DATE=1947\n##XYPOINTS=(XY..XY)\n225.61,3.190\n226.12,3.195\n226.56,3.200\n227.00,3.205\n227.44,3.209\n227.88,3.214\n228.32,3.219\n228.76,3.224\n229.20,3.229\n229.49,3.234\n229.93,3.239\n230.37,3.244\n230.73,3.250\n231.10,3.255\n231.46,3.260\n231.90,3.265\n232.20,3.270\n232.56,3.275\n232.85,3.280\n233.22,3.285\n233.59,3.290\n233.95,3.295\n234.32,3.300\n234.61,3.305\n234.98,3.310\n235.34,3.315\n235.78,3.319\n236.15,3.323\n236.66,3.327\n237.32,3.327\n237.98,3.327\n238.56,3.324\n239.15,3.322\n239.73,3.319\n240.24,3.315\n240.61,3.311\n241.05,3.307\n241.34,3.302\n241.71,3.297\n242.00,3.292\n242.22,3.287\n242.51,3.281\n242.80,3.276\n243.02,3.271\n243.24,3.265\n243.46,3.260\n243.68,3.253\n243.83,3.247\n244.05,3.241\n244.27,3.234\n244.49,3.229\n244.71,3.222\n244.93,3.216\n245.15,3.209\n245.37,3.203\n245.59,3.196\n245.80,3.188\n245.95,3.181\n246.17,3.174\n246.39,3.167\n246.61,3.160\n246.76,3.152\n246.98,3.143\n247.12,3.135\n247.34,3.128\n247.56,3.120\n247.78,3.112\n247.93,3.103\n248.15,3.095\n248.29,3.086\n248.51,3.078\n248.73,3.068\n248.88,3.058\n249.10,3.049\n249.32,3.039\n249.54,3.028\n249.68,3.017\n249.98,3.007\n250.20,2.996\n250.41,2.986\n250.63,2.975\n250.93,2.964\n251.22,2.953\n251.44,2.942\n251.66,2.930\n251.95,2.918\n252.24,2.905\n252.54,2.892\n252.83,2.879\n253.20,2.867\n253.49,2.853\n253.78,2.839\n254.15,2.824\n254.37,2.808\n254.73,2.792\n255.10,2.775\n255.46,2.758\n255.83,2.740\n256.27,2.726\n##END=\n'