b'##TITLE=2-Amino-4-methylpyrimidine\n##JCAMP-DX=4.24\n##DATA TYPE=UV/VIS SPECTRUM\n##ORIGIN=INSTITUTE OF ENERGY PROBLEMS OF CHEMICAL PHYSICS, RAS\n##OWNER=INEP CP RAS, NIST OSRD\nCollection (C) 2007 copyright by the U.S. Secretary of Commerce\non behalf of the United States of America. All rights reserved.\n##CAS REGISTRY NO=108-52-1\n##MOLFORM=C5H7N3\n##MP=160.3\n##BP=sub\n##SOURCE REFERENCE=RAS UV No. 3390\n##$NIST SQUIB=1951MAR/WAL1004-1017\n##$NIST SOURCE=TSGMTE\n##SPECTROMETER/DATA SYSTEM=Beckman DU\n##XUNITS=Wavelength (nm)\n##YUNITS=Logarithm epsilon\n##XFACTOR=1.000000\n##YFACTOR=1.000000\n##FIRSTX=210.0171\n##LASTX=295.2097\n##FIRSTY=3.38323\n##MAXX=295.21\n##MINX=210.017\n##MAXY=3.67577\n##MINY=1.41437\n##NPOINTS=93\n##$REF AUTHOR=Marshall, J.R.; Walker, J.\n##$REF TITLE=An experimental study of some potentially tautomeric 2- and 4(6)-substituted pyrimidines\n##$REF JOURNAL=J. Chem. Soc.\n##$REF PAGE=1004-1017\n##$REF DATE=1951\n##XYPOINTS=(XY..XY)\n210.0171,3.383232\n210.5067,3.357399\n210.9963,3.331274\n211.4859,3.305003\n212.9548,3.246496\n213.8371,3.199082\n214.7500,3.156106\n215.9384,3.114116\n217.6469,3.069660\n222.2982,3.076234\n222.2982,3.080836\n222.2982,3.085437\n222.2982,3.090039\n224.6239,3.155120\n225.1135,3.181391\n225.6031,3.207516\n226.0927,3.233349\n228.0104,3.283967\n228.7856,3.310238\n229.5608,3.336363\n230.3360,3.362196\n231.6009,3.420703\n232.8797,3.462056\n234.3957,3.507477\n235.7893,3.552898\n236.7010,3.594252\n239.8835,3.655388\n240.7086,3.665346\n241.5336,3.670630\n243.0660,3.675767\n246.8605,3.655388\n247.6357,3.638296\n248.4109,3.621204\n249.1861,3.604112\n251.1038,3.553494\n251.7294,3.542391\n252.1102,3.529098\n252.5726,3.502218\n254.0822,3.430563\n254.6535,3.408018\n255.2247,3.385180\n255.7959,3.362196\n256.2039,3.301059\n256.6134,3.275226\n257.0320,3.249101\n257.4687,3.222830\n258.3256,3.151176\n258.6369,3.116992\n258.9119,3.098585\n259.3864,3.080178\n260.4472,3.035476\n260.5711,3.003898\n260.7041,2.972173\n260.8552,2.940156\n261.7120,2.865214\n262.3226,2.840039\n262.5976,2.823336\n262.7729,2.800791\n264.2417,2.729136\n265.4412,2.678316\n266.4933,2.635934\n267.4344,2.598481\n268.3006,2.562453\n269.1284,2.524343\n269.9539,2.480645\n271.8715,2.422796\n272.6467,2.394504\n273.4219,2.366066\n274.1972,2.337336\n275.7068,2.265681\n276.3203,2.232812\n276.9429,2.199943\n277.5837,2.167074\n278.6445,2.109224\n279.3396,2.077645\n280.0438,2.045921\n280.7661,2.013904\n283.3366,1.952767\n283.9501,1.924475\n284.5727,1.896038\n285.2135,1.867307\n287.1311,1.789078\n287.7023,1.764098\n288.2735,1.739118\n288.8447,1.714137\n290.5176,1.653000\n291.0072,1.627168\n291.4968,1.601043\n291.9864,1.574772\n293.0881,1.509692\n293.7832,1.478112\n294.4874,1.446388\n295.2097,1.414370\n##END=\n'