b'##TITLE=2,5-Furandione\n##JCAMP-DX=4.24\n##DATA TYPE=UV/VIS SPECTRUM\n##ORIGIN=INSTITUTE OF ENERGY PROBLEMS OF CHEMICAL PHYSICS, RAS\n##OWNER=INEP CP RAS, NIST OSRD\nCollection (C) 2007 copyright by the U.S. Secretary of Commerce\non behalf of the United States of America. All rights reserved.\n##CAS REGISTRY NO=108-31-6\n##MOLFORM=C4H2O3\n##MP=52.8\n##BP=202\n##SOURCE REFERENCE=RAS UV No. 17664\n##$NIST SQUIB=1977BOU/LEM305\n##$NIST SOURCE=TYUGLMTE\n##SPECTROMETER/DATA SYSTEM=unknown\n##XUNITS=Wavelength (nm)\n##YUNITS=Logarithm epsilon\n##XFACTOR=1.0\n##YFACTOR=1.0\n##FIRSTX=229.72\n##LASTX=343.42\n##FIRSTY=2.976\n##MAXX=343.42\n##MINX=229.72\n##MAXY=2.976\n##MINY=0.523\n##NPOINTS=81\n##$REF AUTHOR=Boule, P.; Lemaire, J.\n##$REF JOURNAL=Compt. rend.\n##$REF VOLUME=285\n##$REF PAGE=305\n##$REF DATE=1977\n##XYPOINTS=(XY..XY)\n229.72,2.976\n229.89,2.969\n230.07,2.962\n230.25,2.955\n230.43,2.948\n230.61,2.941\n230.78,2.934\n230.96,2.926\n231.14,2.919\n231.50,2.900\n232.21,2.855\n233.10,2.784\n234.01,2.723\n234.88,2.663\n235.79,2.600\n236.62,2.548\n237.57,2.487\n238.44,2.422\n239.28,2.364\n240.21,2.290\n241.10,2.223\n241.99,2.144\n242.88,2.066\n243.77,1.981\n244.66,1.906\n245.44,1.849\n246.44,1.789\n247.33,1.721\n248.22,1.662\n249.11,1.608\n250.00,1.569\n250.89,1.526\n251.78,1.490\n252.67,1.458\n254.45,1.430\n256.23,1.405\n258.01,1.391\n260.68,1.366\n262.46,1.359\n264.24,1.345\n266.91,1.330\n268.69,1.323\n270.91,1.312\n273.13,1.302\n274.91,1.295\n277.58,1.281\n279.36,1.274\n281.51,1.260\n282.99,1.252\n285.10,1.240\n286.97,1.229\n289.15,1.217\n291.82,1.202\n293.60,1.192\n295.38,1.185\n298.05,1.178\n299.82,1.174\n301.60,1.170\n303.38,1.167\n307.83,1.149\n309.61,1.142\n311.39,1.135\n313.17,1.131\n315.84,1.114\n317.62,1.092\n320.29,1.064\n322.96,1.025\n324.74,0.993\n326.52,0.964\n328.63,0.930\n330.07,0.907\n331.85,0.875\n333.93,0.834\n336.30,0.779\n337.41,0.752\n338.52,0.722\n339.86,0.680\n340.75,0.637\n341.64,0.602\n342.53,0.566\n343.42,0.523\n##END=\n'