b'##TITLE=Imidodicarbonic diamide\n##JCAMP-DX=4.24\n##DATA TYPE=UV/VIS SPECTRUM\n##ORIGIN=INSTITUTE OF ENERGY PROBLEMS OF CHEMICAL PHYSICS, RAS\n##OWNER=INEP CP RAS, NIST OSRD\nCollection (C) 2007 copyright by the U.S. Secretary of Commerce\non behalf of the United States of America. All rights reserved.\n##CAS REGISTRY NO=108-19-0\n##MOLFORM=C2H5N3O2\n##MP=188 dec.\n##SOURCE REFERENCE=RAS UV No. 19958\n##$NIST SQUIB=1966JOHb11/2\n##$NIST SOURCE=TYUGLMTE\n##SPECTROMETER/DATA SYSTEM=Unicam SP 500\n##XUNITS=Wavelength (nm)\n##YUNITS=Logarithm epsilon\n##XFACTOR=1.0\n##YFACTOR=1.0\n##FIRSTX=191.76\n##LASTX=227.04\n##FIRSTY=4.089\n##MAXX=227.04\n##MINX=191.76\n##MAXY=4.089\n##MINY=0.077\n##NPOINTS=87\n##$REF AUTHOR=Johnson, E.A.\n##$REF JOURNAL=UV atlas of organic compounds\n##$REF VOLUME=1\n##$REF PAGE=B11/2\n##$REF DATE=1966\n##XYPOINTS=(XY..XY)\n191.76,4.089\n191.84,4.087\n191.92,4.082\n192.00,4.078\n192.07,4.076\n192.15,4.072\n192.23,4.070\n192.31,4.065\n192.39,4.063\n192.47,4.059\n192.55,4.057\n192.63,4.052\n192.71,4.050\n192.79,4.046\n193.19,4.029\n193.59,4.008\n193.99,3.986\n194.40,3.963\n194.80,3.939\n195.21,3.913\n195.62,3.888\n196.03,3.860\n196.44,3.832\n196.86,3.802\n197.27,3.772\n197.69,3.742\n198.11,3.710\n198.53,3.678\n198.96,3.646\n199.38,3.614\n199.81,3.582\n200.24,3.543\n200.67,3.509\n201.10,3.468\n201.54,3.425\n201.97,3.382\n202.41,3.327\n202.85,3.284\n203.29,3.233\n203.74,3.183\n204.18,3.138\n204.63,3.089\n205.08,3.044\n205.53,2.993\n205.98,2.937\n206.44,2.879\n206.90,2.828\n207.36,2.770\n207.82,2.715\n208.28,2.663\n208.75,2.610\n209.22,2.556\n209.69,2.494\n210.16,2.430\n210.64,2.370\n211.11,2.308\n211.59,2.248\n212.07,2.188\n212.56,2.122\n213.04,2.049\n213.53,1.982\n214.02,1.918\n214.51,1.850\n215.00,1.785\n215.50,1.715\n216.00,1.653\n216.50,1.584\n217.00,1.518\n217.51,1.451\n218.02,1.385\n218.53,1.314\n219.04,1.244\n219.56,1.162\n220.08,1.096\n220.60,1.019\n221.12,0.946\n221.65,0.880\n222.17,0.801\n222.70,0.717\n223.24,0.636\n223.77,0.559\n224.31,0.475\n224.85,0.394\n225.39,0.317\n225.94,0.233\n226.49,0.146\n227.04,0.077\n##END=\n'