b'##TITLE=Divinyl ether\n##JCAMP-DX=4.24\n##DATA TYPE=UV/VIS SPECTRUM\n##ORIGIN=INSTITUTE OF ENERGY PROBLEMS OF CHEMICAL PHYSICS, RAS\n##OWNER=INEP CP RAS, NIST OSRD\nCollection (C) 2007 copyright by the U.S. Secretary of Commerce\non behalf of the United States of America. All rights reserved.\n##CAS REGISTRY NO=109-93-3\n##MOLFORM=C4H6O\n##MP=-101\n##BP=28.3\n##SOURCE REFERENCE=RAS UV No. 3262\n##$NIST SQUIB=1950HAR/GAD221-223\n##$NIST SOURCE=TSGMTE\n##SPECTROMETER/DATA SYSTEM=Fluorite prism instrument or Beckman DU\n##XUNITS=Wavelength (nm)\n##YUNITS=Logarithm epsilon\n##XFACTOR=1.000000\n##YFACTOR=1.000000\n##FIRSTX=235.9517\n##LASTX=167.9171\n##FIRSTY=1.05319\n##MAXX=235.952\n##MINX=167.917\n##MAXY=4.18817\n##MINY=1.05319\n##NPOINTS=90\n##$REF AUTHOR=Harrison, A.J.; Gaddis, C.L.; Coffin, E.M.\n##$REF TITLE=Quantitative determination of extinction coefficients in the vacuum ultraviolet: divinyl ether\n##$REF JOURNAL=J. Chem. Phys.\n##$REF VOLUME=18\n##$REF NUMBER=2\n##$REF PAGE=221-223\n##$REF DATE=1950\n##XYPOINTS=(XY..XY)\n235.9517,1.053194\n235.4759,1.141654\n235.3306,1.158751\n235.1542,1.196546\n234.9780,1.234011\n234.8021,1.271230\n233.7694,1.448567\n233.5715,1.483455\n233.3760,1.518322\n233.1829,1.553158\n232.9918,1.587953\n232.8024,1.622698\n232.6145,1.657381\n232.4277,1.691992\n232.2417,1.726522\n231.2882,1.909709\n229.4651,2.214112\n229.3293,2.239306\n229.1376,2.272706\n227.1198,2.576702\n226.8248,2.617224\n226.5349,2.657501\n226.2520,2.697615\n225.3041,2.833047\n224.8718,2.887529\n222.5411,3.131797\n220.9873,3.277299\n220.5109,3.317033\n219.2917,3.431520\n218.9687,3.460122\n217.0796,3.592920\n216.5004,3.632820\n214.0792,3.797715\n213.2144,3.837866\n213.2144,3.837866\n212.7709,3.864915\n212.0526,3.904081\n210.3692,3.985589\n210.1812,3.993094\n209.9262,3.999823\n209.9262,3.999823\n208.0693,4.056419\n207.7429,4.071313\n205.5341,4.147797\n205.5341,4.147797\n203.8277,4.179992\n203.5526,4.183288\n202.4893,4.188168\n202.4893,4.188168\n202.1377,4.186370\n201.7873,4.184572\n200.2262,4.181968\n199.8910,4.182328\n198.3835,4.159813\n198.0798,4.156755\n196.5795,4.135694\n196.0796,4.128335\n194.9266,4.098858\n194.7325,4.094367\n193.1886,4.057868\n192.9010,4.050498\n191.7191,4.011934\n191.6026,4.007272\n190.8805,3.996800\n190.7242,3.995552\n188.4464,3.917857\n188.2416,3.908794\n186.7696,3.848312\n184.9019,3.784537\n183.0528,3.735916\n182.7486,3.730751\n181.4687,3.697829\n181.3004,3.694353\n181.1386,3.690879\n180.0501,3.658579\n179.7900,3.651078\n179.7900,3.651078\n177.5315,3.596969\n175.9863,3.605356\n175.6993,3.612303\n174.3234,3.627078\n174.1223,3.628725\n173.9332,3.630375\n172.9219,3.659153\n172.8114,3.660828\n172.6897,3.662500\n171.6361,3.696396\n170.3691,3.735416\n168.4666,3.814291\n167.9171,3.842387\n##END=\n'