b'##TITLE=Pyridine, 2-chloro-\n##JCAMP-DX=4.24\n##DATA TYPE=UV/VIS SPECTRUM\n##ORIGIN=INSTITUTE OF ENERGY PROBLEMS OF CHEMICAL PHYSICS, RAS\n##OWNER=INEP CP RAS, NIST OSRD\nCollection (C) 2007 copyright by the U.S. Secretary of Commerce\non behalf of the United States of America. All rights reserved.\n##CAS REGISTRY NO=109-09-1\n##MOLFORM=C5H4ClN\n##BP=170\n##SOURCE REFERENCE=RAS UV No. 12083\n##$NIST SQUIB=1955BRO/MCD3752\n##$NIST SOURCE=TYUGLMTE\n##SPECTROMETER/DATA SYSTEM=Cary recording spectrometer\n##XUNITS=Wavelength (nm)\n##YUNITS=Logarithm epsilon\n##XFACTOR=1.0\n##YFACTOR=1.0\n##FIRSTX=220.2\n##LASTX=282.5\n##FIRSTY=3.354\n##MAXX=282.5\n##MINX=220.2\n##MAXY=3.86\n##MINY=3.165\n##NPOINTS=146\n##$REF AUTHOR=Brown, H.C.; McDaniel, D.H.\n##$REF JOURNAL=J. Am. Chem. Soc.\n##$REF VOLUME=77\n##$REF PAGE=3752\n##$REF DATE=1955\n##XYPOINTS=(XY..XY)\n220.20,3.354\n220.40,3.340\n220.58,3.326\n220.96,3.298\n221.29,3.285\n221.69,3.268\n222.10,3.253\n222.47,3.242\n222.92,3.231\n223.32,3.220\n223.74,3.211\n224.80,3.191\n225.63,3.177\n226.77,3.168\n227.19,3.167\n227.53,3.166\n227.90,3.165\n229.04,3.165\n229.42,3.165\n230.68,3.168\n230.91,3.169\n231.21,3.170\n231.48,3.170\n231.72,3.171\n232.98,3.176\n234.02,3.183\n235.04,3.192\n235.98,3.202\n236.88,3.210\n237.55,3.218\n237.97,3.222\n238.44,3.226\n238.79,3.230\n239.06,3.233\n239.38,3.237\n239.90,3.247\n241.20,3.267\n241.47,3.271\n241.73,3.278\n241.92,3.284\n242.05,3.286\n242.17,3.289\n242.30,3.291\n242.42,3.293\n242.55,3.296\n242.68,3.298\n242.80,3.301\n242.93,3.303\n243.06,3.305\n243.18,3.308\n243.31,3.310\n243.43,3.312\n243.56,3.315\n243.76,3.319\n244.06,3.326\n244.32,3.331\n244.70,3.341\n245.27,3.355\n245.64,3.367\n246.00,3.377\n246.34,3.387\n246.72,3.397\n247.10,3.413\n247.47,3.430\n247.85,3.440\n248.23,3.449\n248.61,3.459\n248.99,3.470\n249.37,3.481\n249.75,3.488\n250.13,3.498\n250.51,3.507\n250.88,3.518\n251.26,3.530\n251.68,3.545\n252.02,3.560\n252.40,3.573\n252.89,3.590\n253.28,3.605\n253.77,3.623\n254.29,3.640\n254.66,3.651\n255.05,3.663\n255.39,3.675\n255.81,3.690\n256.19,3.697\n256.57,3.705\n256.94,3.713\n257.32,3.723\n257.70,3.732\n258.07,3.742\n258.46,3.751\n258.84,3.763\n259.25,3.776\n259.60,3.786\n260.00,3.795\n260.35,3.801\n260.73,3.805\n261.11,3.813\n261.49,3.818\n262.16,3.830\n262.49,3.835\n262.93,3.841\n263.38,3.847\n263.76,3.849\n264.14,3.853\n264.52,3.855\n264.90,3.857\n265.54,3.860\n266.41,3.859\n267.55,3.853\n268.24,3.844\n268.69,3.840\n269.07,3.832\n269.44,3.823\n269.82,3.813\n270.23,3.801\n270.58,3.792\n270.96,3.783\n271.34,3.774\n271.72,3.765\n272.10,3.754\n272.43,3.743\n272.85,3.729\n273.27,3.713\n273.65,3.700\n274.04,3.687\n274.43,3.671\n274.75,3.651\n275.06,3.633\n275.51,3.598\n275.88,3.568\n276.26,3.542\n276.64,3.509\n277.02,3.469\n277.32,3.444\n277.78,3.408\n278.16,3.387\n278.54,3.363\n278.91,3.342\n279.50,3.310\n279.86,3.287\n280.20,3.269\n280.43,3.261\n281.57,3.223\n282.50,3.203\n##END=\n'