b'##TITLE=Pyrrole\n##JCAMP-DX=4.24\n##DATA TYPE=UV/VIS SPECTRUM\n##ORIGIN=INSTITUTE OF ENERGY PROBLEMS OF CHEMICAL PHYSICS, RAS\n##OWNER=INEP CP RAS, NIST OSRD\nCollection (C) 2007 copyright by the U.S. Secretary of Commerce\non behalf of the United States of America. All rights reserved.\n##CAS REGISTRY NO=109-97-7\n##MOLFORM=C4H5N\n##MP=-23.4\n##BP=129.7\n##SOURCE REFERENCE=RAS UV No. 17\n##$NIST SQUIB=1963SAN/CHA1106\n##$NIST SOURCE=TSGMTE\n##SPECTROMETER/DATA SYSTEM=Beckman DU\n##XUNITS=Wavelength (nm)\n##YUNITS=Logarithm epsilon\n##XFACTOR=1.000000\n##YFACTOR=1.000000\n##FIRSTX=260.7177\n##LASTX=320.7946\n##FIRSTY=2.97899\n##MAXX=320.795\n##MINX=260.718\n##MAXY=3.04989\n##MINY=2.97899\n##NPOINTS=134\n##$REF AUTHOR=Sannigrahi, A.B.; Chandra, A.K.\n##$REF JOURNAL=J. Phys. Chem.\n##$REF VOLUME=67\n##$REF PAGE=1106\n##$REF DATE=1963\n##XYPOINTS=(XY..XY)\n260.7177,2.978986\n261.2865,2.979418\n261.8612,2.979800\n262.0645,2.980880\n262.7441,2.982020\n263.4239,2.983105\n264.1036,2.984163\n264.3073,2.985118\n264.4107,2.985139\n264.5170,2.985160\n264.6290,2.985183\n264.8455,2.986139\n265.4865,2.987257\n266.1276,2.988322\n266.7688,2.989359\n267.1909,2.990459\n267.4745,2.990515\n267.7610,2.990571\n268.0532,2.990629\n268.2568,2.991570\n268.5840,2.992463\n268.8532,2.993667\n269.1118,2.994542\n269.5342,2.995518\n270.7295,2.998706\n271.5605,3.000878\n272.1337,3.002300\n272.5558,3.003233\n272.9334,3.003931\n273.3733,3.004645\n273.5769,3.005557\n274.0756,3.006849\n274.5744,3.008137\n275.0731,3.009421\n275.2893,3.010433\n275.6085,3.011430\n275.9279,3.012377\n276.2473,3.013298\n276.4509,3.014192\n277.1116,3.015683\n277.8275,3.018183\n278.5473,3.021004\n279.2197,3.023476\n279.4230,3.024453\n279.6016,3.025080\n279.7802,3.025660\n279.9590,3.026217\n280.5975,3.028095\n281.0577,3.029315\n281.5178,3.030531\n281.9780,3.031744\n282.1941,3.032705\n282.6606,3.033709\n283.0830,3.035110\n283.5746,3.036315\n283.7782,3.037163\n284.5485,3.039447\n284.9364,3.040403\n285.2741,3.040857\n285.4906,3.041698\n286.1317,3.043679\n286.7232,3.045386\n287.2961,3.046835\n287.8815,3.048043\n288.5105,3.049025\n289.2141,3.049796\n289.7546,3.049889\n290.9485,3.049200\n291.6013,3.048571\n292.2727,3.047461\n292.4412,3.047094\n292.5060,3.047106\n292.5737,3.047117\n292.6471,3.047130\n292.8682,3.046375\n293.4377,3.045684\n294.0086,3.045076\n294.5809,3.044545\n295.1547,3.044086\n295.7299,3.043692\n296.3065,3.043358\n296.8846,3.043077\n297.4641,3.042843\n298.0450,3.042650\n298.6273,3.042492\n299.2110,3.042362\n299.7961,3.042255\n300.3826,3.042165\n300.9705,3.042084\n301.5598,3.042007\n301.5598,3.042007\n301.8582,3.040420\n302.3050,3.038842\n302.8667,3.037295\n303.5102,3.035798\n304.2021,3.034374\n304.9092,3.033043\n305.5982,3.031827\n306.2358,3.030746\n306.7887,3.029824\n307.2237,3.029080\n307.3925,3.028594\n307.6375,3.028639\n307.8854,3.028683\n308.1390,3.028729\n308.3601,3.027942\n309.0175,3.027566\n309.6462,3.027025\n310.2520,3.026327\n310.8407,3.025478\n311.4180,3.024482\n311.9896,3.023347\n312.5613,3.022078\n313.1389,3.020680\n313.7280,3.019160\n314.3345,3.017523\n314.9641,3.015774\n315.6225,3.013920\n315.7910,3.013524\n315.8592,3.013536\n315.9330,3.013550\n316.0098,3.013564\n316.2180,3.012747\n316.9691,3.011719\n317.4114,3.010559\n317.7325,3.009805\n317.8366,3.009393\n317.9401,3.009412\n318.0464,3.009432\n318.1584,3.009453\n318.4825,3.008650\n319.2483,3.007788\n320.0200,3.006877\n320.7946,3.005940\n##END=\n'