b'##TITLE=Allyl cyanide\n##JCAMP-DX=4.24\n##DATA TYPE=UV/VIS SPECTRUM\n##ORIGIN=INSTITUTE OF ENERGY PROBLEMS OF CHEMICAL PHYSICS, RAS\n##OWNER=INEP CP RAS, NIST OSRD\nCollection (C) 2007 copyright by the U.S. Secretary of Commerce\non behalf of the United States of America. All rights reserved.\n##CAS REGISTRY NO=109-75-1\n##MOLFORM=C4H5N\n##BP=116-120\n##SOURCE REFERENCE=RAS UV No. 19920\n##$NIST SQUIB=1966PER/BRAa1/13\n##$NIST SOURCE=TYUGLMTE\n##SPECTROMETER/DATA SYSTEM=ZeissPMQ II\n##XUNITS=Wavelength (nm)\n##YUNITS=Logarithm epsilon\n##XFACTOR=1.0\n##YFACTOR=1.0\n##FIRSTX=182.1\n##LASTX=221.28\n##FIRSTY=3.659\n##MAXX=221.28\n##MINX=182.1\n##MAXY=3.659\n##MINY=1.231\n##NPOINTS=134\n##$REF AUTHOR=Perkampus, H.-H.; Braunschweig, T.H.\n##$REF JOURNAL=UV atlas of organic compounds\n##$REF VOLUME=1\n##$REF PAGE=A1/13\n##$REF DATE=1966\n##XYPOINTS=(XY..XY)\n182.10,3.659\n182.17,3.657\n182.24,3.653\n182.31,3.648\n182.38,3.644\n182.46,3.637\n182.54,3.630\n182.63,3.622\n182.71,3.614\n182.81,3.606\n182.94,3.595\n183.09,3.582\n183.23,3.569\n183.37,3.557\n183.50,3.544\n183.66,3.531\n183.80,3.518\n183.96,3.504\n184.09,3.493\n184.23,3.480\n184.38,3.468\n184.53,3.454\n184.67,3.443\n184.83,3.429\n184.99,3.415\n185.14,3.402\n185.30,3.388\n185.47,3.373\n185.61,3.361\n185.74,3.350\n185.87,3.337\n185.98,3.324\n186.17,3.302\n186.40,3.273\n186.61,3.246\n186.93,3.205\n187.23,3.169\n187.52,3.135\n187.82,3.096\n188.12,3.056\n188.42,3.015\n188.72,2.975\n189.03,2.934\n189.33,2.904\n189.63,2.864\n189.94,2.815\n190.24,2.768\n190.55,2.734\n190.86,2.698\n191.17,2.659\n191.48,2.623\n191.79,2.589\n192.10,2.553\n192.42,2.518\n192.73,2.493\n193.04,2.463\n193.36,2.433\n193.68,2.408\n194.00,2.384\n194.32,2.363\n194.64,2.342\n194.96,2.322\n195.28,2.310\n195.60,2.295\n195.93,2.282\n196.25,2.273\n196.58,2.269\n196.91,2.263\n197.24,2.261\n197.57,2.258\n197.90,2.254\n198.23,2.252\n198.57,2.252\n198.90,2.252\n199.24,2.252\n199.57,2.254\n199.91,2.256\n200.25,2.263\n200.59,2.269\n200.93,2.269\n201.28,2.261\n201.62,2.252\n201.96,2.243\n202.31,2.241\n202.66,2.241\n203.01,2.241\n203.36,2.250\n203.71,2.252\n204.06,2.256\n204.41,2.250\n204.77,2.239\n205.12,2.229\n205.48,2.220\n205.84,2.211\n206.20,2.201\n206.56,2.192\n206.92,2.184\n207.28,2.177\n207.65,2.169\n208.02,2.158\n208.38,2.145\n208.75,2.126\n209.12,2.105\n209.49,2.086\n209.86,2.060\n210.24,2.039\n210.61,2.017\n210.99,1.992\n211.37,1.966\n211.75,1.943\n212.13,1.922\n212.51,1.898\n212.89,1.877\n213.26,1.854\n213.58,1.835\n214.00,1.812\n214.38,1.789\n214.78,1.766\n215.22,1.739\n215.62,1.717\n216.03,1.692\n216.40,1.670\n216.80,1.644\n217.18,1.619\n217.60,1.589\n218.01,1.555\n218.41,1.521\n218.81,1.487\n219.16,1.456\n219.63,1.412\n220.04,1.369\n220.45,1.323\n220.86,1.269\n221.28,1.231\n##END=\n'