b'##TITLE=Malononitrile\n##JCAMP-DX=4.24\n##DATA TYPE=UV/VIS SPECTRUM\n##ORIGIN=INSTITUTE OF ENERGY PROBLEMS OF CHEMICAL PHYSICS, RAS\n##OWNER=INEP CP RAS, NIST OSRD\nCollection (C) 2007 copyright by the U.S. Secretary of Commerce\non behalf of the United States of America. All rights reserved.\n##CAS REGISTRY NO=109-77-3\n##MOLFORM=C3H2N2\n##MP=32\n##BP=218.5\n##SOURCE REFERENCE=RAS UV No. 12875\n##$NIST SQUIB=1959SCH/ULL185\n##$NIST SOURCE=TYUGLMTE\n##SPECTROMETER/DATA SYSTEM=n.i.g.\n##XUNITS=Wavelength (nm)\n##YUNITS=Logarithm epsilon\n##XFACTOR=1.0\n##YFACTOR=1.0\n##FIRSTX=212.45\n##LASTX=332.47\n##FIRSTY=0.624\n##MAXX=332.47\n##MINX=212.45\n##MAXY=0.624\n##MINY=-0.548\n##NPOINTS=90\n##$REF AUTHOR=Schurz, J.; Ullrich, A.\n##$REF JOURNAL=Z. physik. Chem. (Frankfurt)\n##$REF VOLUME=21\n##$REF PAGE=185\n##$REF DATE=1959\n##XYPOINTS=(XY..XY)\n212.45,0.624\n213.33,0.608\n214.23,0.583\n215.13,0.578\n216.03,0.545\n216.95,0.537\n217.87,0.503\n218.80,0.499\n219.74,0.474\n220.69,0.457\n221.65,0.441\n222.61,0.428\n223.58,0.420\n224.56,0.399\n225.55,0.391\n226.55,0.374\n227.56,0.361\n229.60,0.349\n230.63,0.345\n232.73,0.328\n233.79,0.328\n235.94,0.324\n237.04,0.324\n238.14,0.328\n239.25,0.328\n240.38,0.328\n241.51,0.332\n242.65,0.345\n243.81,0.349\n244.98,0.353\n246.15,0.374\n247.34,0.370\n248.54,0.374\n249.76,0.391\n252.22,0.407\n253.47,0.416\n254.73,0.437\n256.00,0.445\n257.29,0.449\n258.59,0.457\n261.22,0.466\n262.56,0.474\n263.92,0.478\n266.67,0.478\n268.06,0.478\n269.47,0.478\n272.34,0.474\n273.80,0.466\n275.27,0.462\n278.26,0.445\n279.78,0.437\n281.32,0.432\n284.44,0.391\n286.03,0.374\n287.64,0.336\n289.27,0.295\n290.91,0.249\n292.57,0.195\n294.25,0.111\n295.95,0.040\n297.67,-0.022\n299.42,-0.173\n301.18,-0.256\n302.96,-0.319\n304.76,-0.360\n306.59,-0.390\n308.43,-0.398\n310.30,-0.440\n312.20,-0.452\n316.05,-0.490\n318.01,-0.507\n320.00,-0.507\n322.01,-0.519\n324.05,-0.532\n326.11,-0.523\n326.53,-0.527\n326.95,-0.527\n327.37,-0.527\n327.78,-0.532\n328.21,-0.532\n328.63,-0.536\n329.05,-0.536\n329.47,-0.536\n329.90,-0.540\n330.32,-0.540\n330.75,-0.540\n331.18,-0.544\n331.61,-0.544\n332.04,-0.544\n332.47,-0.548\n##END=\n'