b'##TITLE=3-Pyridinol\n##JCAMP-DX=4.24\n##DATA TYPE=UV/VIS SPECTRUM\n##ORIGIN=INSTITUTE OF ENERGY PROBLEMS OF CHEMICAL PHYSICS, RAS\n##OWNER=INEP CP RAS, NIST OSRD\nCollection (C) 2007 copyright by the U.S. Secretary of Commerce\non behalf of the United States of America. All rights reserved.\n##CAS REGISTRY NO=109-00-2\n##MOLFORM=C5H5NO\n##MP=125-128\n##SOURCE REFERENCE=RAS UV No. 10883\n##$NIST SQUIB=1949LEF67\n##$NIST SOURCE=TYUGLMTE\n##SPECTROMETER/DATA SYSTEM=n.i.g.\n##XUNITS=Wavelength (nm)\n##YUNITS=Logarithm epsilon\n##XFACTOR=1.0\n##YFACTOR=1.0\n##FIRSTX=220.24\n##LASTX=298.58\n##FIRSTY=3.734\n##MAXX=298.58\n##MINX=220.24\n##MAXY=3.734\n##MINY=1.245\n##NPOINTS=134\n##$REF AUTHOR=Leffler, J.E.\n##$REF JOURNAL=J. Am. Chem. Soc.\n##$REF VOLUME=71\n##$REF PAGE=67\n##$REF DATE=1949\n##XYPOINTS=(XY..XY)\n220.24,3.734\n220.53,3.730\n220.86,3.721\n221.47,3.708\n222.09,3.690\n222.70,3.674\n223.31,3.653\n223.93,3.630\n224.54,3.603\n225.16,3.575\n225.77,3.542\n226.39,3.510\n227.00,3.468\n227.62,3.430\n228.23,3.392\n228.85,3.343\n229.46,3.296\n230.07,3.225\n230.69,3.151\n231.30,3.100\n231.92,3.049\n232.53,2.991\n233.15,2.942\n233.76,2.886\n234.38,2.834\n234.89,2.799\n235.61,2.748\n236.22,2.690\n236.80,2.655\n237.45,2.605\n238.06,2.565\n238.57,2.532\n239.29,2.498\n239.97,2.480\n240.67,2.465\n241.28,2.455\n241.84,2.450\n242.39,2.448\n242.95,2.448\n243.65,2.455\n244.21,2.473\n244.82,2.498\n245.44,2.522\n246.05,2.544\n246.67,2.565\n247.34,2.582\n247.90,2.602\n248.51,2.623\n249.11,2.647\n249.74,2.674\n250.32,2.697\n251.02,2.717\n251.58,2.734\n252.23,2.757\n252.81,2.774\n253.45,2.797\n254.04,2.811\n254.66,2.834\n255.26,2.854\n255.87,2.874\n256.43,2.897\n257.08,2.914\n257.73,2.934\n258.34,2.957\n258.90,2.977\n259.46,2.999\n260.16,3.026\n260.81,3.051\n261.42,3.075\n262.03,3.106\n262.64,3.129\n263.19,3.159\n263.87,3.197\n264.49,3.225\n265.10,3.251\n265.72,3.276\n266.33,3.300\n266.95,3.326\n267.56,3.353\n268.18,3.383\n268.79,3.413\n269.40,3.436\n270.02,3.463\n270.63,3.486\n271.25,3.498\n271.86,3.510\n272.48,3.524\n273.09,3.535\n273.71,3.546\n274.32,3.555\n274.93,3.565\n275.55,3.573\n276.16,3.577\n276.78,3.583\n277.39,3.591\n278.01,3.593\n278.62,3.599\n279.24,3.599\n279.85,3.599\n280.47,3.599\n281.08,3.595\n282.31,3.585\n282.92,3.575\n283.54,3.567\n284.15,3.552\n284.77,3.531\n285.38,3.510\n286.00,3.473\n286.61,3.447\n287.23,3.416\n287.84,3.380\n288.45,3.350\n289.21,3.296\n289.77,3.256\n290.30,3.207\n290.91,3.151\n291.53,3.094\n292.10,3.041\n292.66,2.959\n293.37,2.823\n293.99,2.674\n294.90,2.475\n295.69,2.325\n295.88,2.288\n296.11,2.243\n296.34,2.198\n296.62,2.146\n296.85,2.088\n297.09,2.011\n297.27,1.906\n297.37,1.824\n297.60,1.697\n297.97,1.514\n298.58,1.245\n##END=\n'