b'##TITLE=Furan, tetrahydro-\n##JCAMP-DX=4.24\n##DATA TYPE=UV/VIS SPECTRUM\n##ORIGIN=INSTITUTE OF ENERGY PROBLEMS OF CHEMICAL PHYSICS, RAS\n##OWNER=INEP CP RAS, NIST OSRD\nCollection (C) 2007 copyright by the U.S. Secretary of Commerce\non behalf of the United States of America. All rights reserved.\n##CAS REGISTRY NO=109-99-9\n##MOLFORM=C4H8O\n##MP=-108.3\n##BP=65\n##SOURCE REFERENCE=RAS UV No. 21\n##$NIST SQUIB=1951PIC/HOE4865-4869\n##$NIST SOURCE=TSGMTE\n##SPECTROMETER/DATA SYSTEM=Hilger fluorite prism spectrograph\n##XUNITS=Wavelength (nm)\n##YUNITS=Logarithm epsilon\n##XFACTOR=1.000000\n##YFACTOR=1.000000\n##FIRSTX=199.1212\n##LASTX=161.9523\n##FIRSTY=2.10189\n##MAXX=199.121\n##MINX=161.952\n##MAXY=3.4579\n##MINY=2.02343\n##NPOINTS=1129\n##$REF AUTHOR=Pickett, L.W.; Hoeflich, N.J.; Liu, T.-C.\n##$REF TITLE=The vacuum ultraviolet absorption spectra of cyclic compounds. II. Tetrahydrofuran, tetrahydropyran, 1,4-dioxane and furan\n##$REF JOURNAL=J. Am. Chem. Soc.\n##$REF VOLUME=73\n##$REF PAGE=4865-4869\n##$REF DATE=1951\n##XYPOINTS=(XY..XY)\n199.1212,2.101893\n199.1212,2.101893\n199.1164,2.103183\n199.1164,2.103183\n199.1107,2.104424\n199.1107,2.104424\n199.1030,2.105568\n199.0977,2.023428\n199.0964,2.029936\n199.0898,2.062438\n199.0895,2.063674\n199.0893,2.064814\n199.0891,2.065905\n199.0858,2.082156\n199.0855,2.083448\n199.0853,2.084692\n199.0851,2.085839\n199.0680,2.170344\n199.0665,2.177494\n198.8244,2.120816\n198.8009,2.128324\n198.7893,2.121665\n198.6686,2.179248\n198.6686,2.179248\n198.6383,2.178582\n198.6079,2.177917\n198.5775,2.177252\n198.5775,2.177252\n198.5734,2.175508\n198.5682,2.173716\n198.5612,2.171826\n198.5612,2.171826\n198.5086,2.172450\n198.3795,2.166318\n198.2234,2.229950\n198.0650,2.191451\n198.0160,2.183256\n197.9815,2.182372\n197.9798,2.190814\n197.9307,2.347641\n197.7450,2.284857\n197.6996,2.251575\n197.6814,2.256116\n197.6768,2.279518\n197.6721,2.302919\n197.5620,2.373074\n197.5489,2.379569\n197.5115,2.373049\n197.5115,2.373049\n197.4962,2.378892\n197.4584,2.380174\n197.4496,2.374744\n197.4416,2.378215\n197.4416,2.378215\n197.3958,2.490011\n197.2085,2.419046\n197.1864,2.406907\n197.1478,2.406888\n196.9264,2.457267\n196.8891,2.457248\n196.8776,2.465686\n196.8642,2.474074\n196.6951,2.581448\n196.6504,2.583030\n196.6483,2.593864\n196.6300,2.577386\n196.3837,2.507483\n196.3827,2.512683\n196.3715,2.519981\n196.2983,2.573967\n196.2669,2.559432\n196.2646,2.572216\n196.2427,2.568946\n196.2318,2.559414\n196.2189,2.565628\n196.1948,2.559395\n196.1948,2.559395\n196.1942,2.562212\n196.1904,2.555155\n196.1549,2.550755\n196.0903,2.550457\n196.0689,2.550446\n196.0579,2.542423\n196.0466,2.550435\n196.0238,2.543272\n196.0233,2.545655\n196.0228,2.548039\n196.0224,2.550422\n196.0224,2.550422\n196.0220,2.552156\n196.0125,2.551059\n196.0011,2.549914\n195.9888,2.548672\n195.9877,2.553872\n195.9515,2.564688\n195.9144,2.575504\n195.8027,2.584942\n195.7443,2.582753\n195.6989,2.579078\n195.6894,2.578198\n195.6780,2.577270\n195.6656,2.576244\n195.6272,2.578175\n195.6173,2.579036\n195.6095,2.582499\n195.6095,2.582499\n195.6056,2.579897\n195.5929,2.580757\n195.5290,2.593125\n195.4507,2.595203\n195.4162,2.596799\n195.3820,2.594943\n195.3115,2.594634\n195.2401,2.594228\n195.2065,2.594211\n195.1937,2.595071\n195.1888,2.598536\n195.1888,2.598536\n195.1809,2.595931\n195.1681,2.596792\n195.1576,2.607613\n195.1264,2.616642\n195.0952,2.625575\n195.0952,2.625575\n195.0728,2.626206\n195.0623,2.621874\n195.0486,2.626787\n195.0234,2.627272\n195.0035,2.621619\n194.9902,2.625521\n194.9448,2.621316\n194.9314,2.625491\n194.8861,2.620917\n194.8726,2.625460\n194.8525,2.620899\n194.8397,2.622410\n194.8346,2.627174\n194.8268,2.623920\n194.8139,2.625430\n194.8139,2.625430\n194.7552,2.648707\n194.7167,2.657114\n194.6858,2.659602\n194.6858,2.659602\n194.5864,2.651148\n194.5243,2.646902\n194.4464,2.643226\n194.4464,2.643226\n194.4137,2.639525\n194.4092,2.640815\n194.4037,2.642056\n194.3963,2.643200\n194.3279,2.660677\n194.2690,2.681819\n194.2311,2.699890\n194.2311,2.699890\n194.1704,2.712202\n194.1097,2.724466\n194.0492,2.736634\n194.0492,2.736634\n193.9125,2.725976\n193.7814,2.711325\n193.6788,2.697651\n193.6788,2.697651\n193.6586,2.695040\n193.6455,2.698003\n193.6383,2.691996\n193.6171,2.688951\n193.6112,2.698258\n193.5941,2.685905\n193.5751,2.698464\n193.5751,2.698464\n193.5565,2.687619\n193.5559,2.690652\n193.5553,2.693686\n193.5548,2.696719\n193.4188,2.758271\n193.3674,2.790236\n193.3650,2.782064\n193.3375,2.773968\n193.3086,2.773728\n193.3000,2.775682\n193.2995,2.778218\n193.2990,2.780657\n193.2986,2.783049\n193.2798,2.773440\n193.2510,2.773055\n193.2510,2.773055\n193.2474,2.769153\n193.2430,2.765250\n193.2381,2.754196\n193.2367,2.761346\n193.2334,2.756079\n193.2279,2.757866\n193.2205,2.759604\n193.2205,2.759604\n193.1975,2.772161\n193.1522,2.771912\n193.1462,2.760207\n193.1070,2.771615\n193.0720,2.760762\n193.0617,2.771222\n193.0617,2.771222\n193.0528,2.768553\n193.0420,2.765786\n193.0304,2.762971\n192.9978,2.761220\n192.9978,2.761220\n192.9574,2.752435\n192.9139,2.745670\n192.8977,2.746865\n192.8647,2.746848\n192.8307,2.746830\n192.8301,2.735128\n192.7970,2.735977\n192.7963,2.739653\n192.7957,2.743280\n192.7950,2.746811\n192.7950,2.746811\n192.7945,2.749411\n192.6492,2.802346\n192.5792,2.824501\n192.5425,2.824040\n192.5241,2.834865\n192.5241,2.834865\n192.5209,2.824028\n192.4974,2.824016\n192.4743,2.828924\n192.4729,2.824003\n192.4438,2.821885\n192.4068,2.805982\n192.4065,2.807715\n192.4065,2.807715\n192.3980,2.802943\n192.3874,2.799904\n192.3758,2.796864\n192.3431,2.796847\n192.3427,2.799230\n192.3422,2.801614\n192.3418,2.803997\n192.3418,2.803997\n192.3330,2.807179\n192.2967,2.803973\n192.2596,2.806546\n192.2507,2.803949\n192.2029,2.803923\n192.1862,2.805865\n192.1862,2.805865\n192.1385,2.798680\n192.0899,2.791447\n192.0395,2.784117\n192.0395,2.784117\n192.0074,2.781499\n191.9946,2.784462\n191.9858,2.781857\n191.9623,2.782118\n191.9498,2.784711\n191.9380,2.782329\n191.9050,2.784912\n191.9050,2.784912\n191.8129,2.802721\n191.7387,2.822513\n191.6574,2.848707\n191.6185,2.861255\n191.6126,2.848683\n191.5864,2.859504\n191.5777,2.856465\n191.5671,2.853426\n191.5670,2.848658\n191.5557,2.850386\n191.5195,2.848633\n191.5195,2.848633\n191.4217,2.828757\n191.3059,2.809545\n191.2282,2.805354\n191.1958,2.805336\n191.1949,2.789083\n191.1624,2.805318\n191.1623,2.790799\n191.1521,2.795714\n191.1401,2.800531\n191.1273,2.805299\n191.1273,2.805299\n191.1270,2.807033\n191.0737,2.826507\n191.0187,2.845981\n190.9629,2.865454\n190.9629,2.865454\n190.9302,2.868037\n190.9144,2.865428\n190.9014,2.871055\n190.8727,2.874073\n190.8651,2.865401\n190.8447,2.873408\n190.8440,2.877092\n190.8358,2.871662\n190.8251,2.869866\n190.8140,2.865374\n190.8140,2.865374\n190.8135,2.867974\n190.7080,2.845316\n190.6003,2.825161\n190.5216,2.817542\n190.4919,2.804957\n190.4894,2.817524\n190.4598,2.804940\n190.4563,2.817506\n190.4470,2.809203\n190.4412,2.819232\n190.4342,2.813369\n190.4215,2.817488\n190.4215,2.817488\n190.3881,2.824621\n190.3877,2.827004\n190.3872,2.829388\n190.3868,2.831771\n190.3860,2.851049\n190.3292,2.882817\n190.3107,2.875070\n190.3104,2.876803\n190.3101,2.878537\n190.3098,2.880270\n190.2748,2.896504\n190.2715,2.914488\n190.2398,2.912737\n190.2307,2.897130\n190.2194,2.908601\n190.1972,2.904415\n190.1866,2.897756\n190.1742,2.900133\n190.1425,2.898382\n190.1425,2.898382\n190.0412,2.877339\n189.9046,2.855748\n189.7854,2.845963\n189.7654,2.845953\n189.7559,2.833379\n189.7445,2.845941\n189.7241,2.833361\n189.7233,2.837631\n189.7226,2.841804\n189.7218,2.845929\n189.7218,2.845929\n189.7054,2.848520\n189.6017,2.891082\n189.5381,2.912283\n189.4780,2.919474\n189.4602,2.930299\n189.4602,2.930299\n189.4570,2.919462\n189.4343,2.919450\n189.4106,2.919437\n189.2668,2.899574\n189.1305,2.876008\n189.0452,2.862678\n189.0452,2.862678\n189.0260,2.859850\n189.0174,2.857462\n189.0070,2.855073\n188.9957,2.852683\n188.9638,2.854399\n188.9635,2.856285\n188.9632,2.858074\n188.9629,2.859816\n188.9614,2.863635\n188.8633,2.865179\n188.8521,2.865975\n188.8082,2.865148\n188.7531,2.865118\n188.6990,2.859671\n188.6986,2.861557\n188.6983,2.863346\n188.6980,2.865088\n188.6980,2.865088\n188.6816,2.868762\n188.6816,2.868762\n188.6668,2.863337\n188.6666,2.864573\n188.6664,2.865712\n188.6662,2.866804\n188.6142,2.892771\n188.5460,2.916731\n188.4973,2.910050\n188.4765,2.910039\n188.4761,2.940594\n188.4761,2.940594\n188.4540,2.910027\n188.4306,2.910014\n188.4214,2.916662\n188.3659,2.892634\n188.3091,2.866606\n188.3088,2.868557\n188.3088,2.868557\n188.2884,2.866370\n188.2660,2.866085\n188.2427,2.865703\n188.2116,2.864819\n188.1800,2.865443\n188.1476,2.866019\n188.1135,2.866498\n188.0281,2.876973\n187.8859,2.895000\n187.8458,2.900588\n187.8029,2.900564\n187.7815,2.911387\n187.7809,2.915071\n187.7703,2.908773\n187.7601,2.900540\n187.7591,2.906110\n187.7479,2.903351\n187.7173,2.900517\n187.7173,2.900517\n187.6880,2.889168\n187.6579,2.877722\n187.6262,2.866227\n187.5954,2.864476\n187.5944,2.869893\n187.5400,2.869863\n187.4856,2.869833\n187.4313,2.869802\n187.3584,2.872386\n187.2482,2.881956\n187.1707,2.896744\n187.1707,2.896744\n187.1394,2.898460\n187.1389,2.901486\n187.1384,2.904463\n187.1378,2.907344\n187.1242,2.896493\n187.1033,2.905591\n187.0842,2.903566\n187.0768,2.896194\n187.0643,2.901444\n187.0426,2.899273\n187.0278,2.895797\n187.0278,2.895797\n186.9671,2.882914\n186.9048,2.869933\n186.8417,2.856903\n186.8417,2.856903\n186.6281,2.855291\n186.4786,2.860792\n186.3124,2.870907\n186.3124,2.870907\n186.2816,2.870665\n186.2500,2.870375\n186.2167,2.869987\n186.2167,2.869987\n186.1491,2.857741\n186.1084,2.852156\n186.0598,2.848444\n186.0297,2.845610\n185.9986,2.847752\n185.9667,2.849844\n185.9331,2.851840\n185.9331,2.851840\n185.8911,2.851816\n185.8491,2.851792\n185.8071,2.851768\n185.8071,2.851768\n185.7770,2.848870\n185.7460,2.845875\n185.7142,2.838280\n185.7134,2.842830\n185.6659,2.843389\n185.6127,2.847677\n185.5517,2.853356\n185.5517,2.853356\n185.5060,2.853106\n185.4594,2.852806\n185.4112,2.852410\n185.4112,2.852410\n185.2922,2.829901\n185.1870,2.805811\n185.1073,2.791126\n185.1073,2.791126\n185.0375,2.796520\n184.9965,2.801160\n184.9491,2.809022\n184.9491,2.809022\n184.8922,2.809631\n184.8345,2.810192\n184.7752,2.810656\n184.7752,2.810656\n184.6749,2.794578\n184.6234,2.787582\n184.5764,2.783670\n184.5764,2.783670\n184.5345,2.786897\n184.4925,2.790123\n184.4506,2.793349\n184.4506,2.793349\n184.1962,2.788796\n184.0557,2.778241\n183.8944,2.759873\n183.8944,2.759873\n183.7707,2.762794\n183.5478,2.765996\n183.3678,2.767584\n183.3678,2.767584\n183.2839,2.752302\n183.1985,2.736922\n183.1124,2.721494\n183.1124,2.721494\n182.9905,2.726287\n182.9000,2.730953\n182.7297,2.732972\n182.7297,2.732972\n182.6207,2.724456\n182.5274,2.715806\n182.4729,2.704866\n182.4729,2.704866\n182.4395,2.706797\n182.3726,2.704583\n182.3587,2.706749\n182.2779,2.706702\n182.2708,2.704250\n182.1972,2.706654\n182.1683,2.703820\n182.1683,2.703820\n182.0670,2.689145\n181.9177,2.670540\n181.7480,2.658714\n181.7189,2.658696\n181.6901,2.655862\n181.6895,2.659048\n181.6593,2.659303\n181.6276,2.659509\n181.6183,2.658332\n181.5430,2.662725\n181.3997,2.672809\n181.3997,2.672809\n181.3343,2.672770\n181.2689,2.672731\n181.2036,2.672692\n181.2036,2.672692\n181.1269,2.665856\n181.0734,2.659756\n180.9974,2.649165\n180.9653,2.646545\n180.8603,2.651402\n180.7810,2.657045\n180.7096,2.663511\n180.7096,2.663511\n180.6447,2.663472\n180.6190,2.666057\n180.5938,2.666042\n180.5798,2.663433\n180.5686,2.666027\n180.5434,2.666012\n180.5150,2.663394\n180.5150,2.663394\n180.4554,2.643494\n180.4508,2.620160\n180.4285,2.642539\n180.4281,2.644922\n180.4277,2.647306\n180.4273,2.649689\n180.4016,2.631687\n180.3918,2.625397\n180.3821,2.619107\n180.3723,2.612817\n180.3446,2.606516\n180.3260,2.604490\n180.3169,2.600215\n180.3057,2.602367\n180.2846,2.600195\n180.2414,2.601036\n180.0083,2.624461\n179.8316,2.653934\n179.6953,2.684325\n179.6187,2.690589\n179.5900,2.690572\n179.5842,2.705087\n179.5833,2.710504\n179.5767,2.700957\n179.5676,2.696779\n179.5606,2.690554\n179.5578,2.692503\n179.5296,2.690535\n179.5296,2.690535\n179.5069,2.673322\n179.4620,2.651279\n179.4202,2.641928\n179.3872,2.641683\n179.3608,2.635607\n179.3526,2.641389\n179.3321,2.637323\n179.3310,2.643607\n179.3173,2.640998\n179.3173,2.640998\n179.3122,2.643595\n179.3100,2.638747\n179.3062,2.639699\n179.2918,2.643583\n179.2845,2.645529\n179.2712,2.640103\n179.2710,2.641339\n179.2708,2.642479\n179.2707,2.643570\n179.2707,2.643570\n179.1969,2.681448\n179.1445,2.699402\n179.1443,2.700638\n179.1441,2.701777\n179.1439,2.702869\n179.1086,2.717366\n179.0494,2.739000\n179.0193,2.749600\n179.0187,2.753283\n179.0105,2.738976\n179.0092,2.746712\n178.9991,2.743728\n178.9889,2.740696\n178.9715,2.738952\n178.9326,2.738928\n178.9326,2.738928\n178.8477,2.717856\n178.7628,2.696784\n178.7348,2.695467\n178.6959,2.695443\n178.6780,2.675712\n178.6562,2.695419\n178.6495,2.677428\n178.6380,2.683481\n178.6322,2.697137\n178.6264,2.689485\n178.6149,2.695393\n178.6149,2.695393\n178.5410,2.726825\n178.4090,2.753503\n178.1352,2.770726\n178.1066,2.774392\n178.0368,2.764742\n177.9780,2.754737\n177.9657,2.758052\n177.9375,2.758035\n177.9363,2.744599\n177.9087,2.758017\n177.9082,2.745448\n177.8995,2.749713\n177.8919,2.759740\n177.8893,2.753880\n177.8782,2.757998\n177.8782,2.757998\n177.8374,2.832052\n177.8104,2.859115\n177.8055,2.840733\n177.8050,2.843758\n177.8045,2.846735\n177.8041,2.849616\n177.7878,2.864125\n177.7878,2.864125\n177.6645,2.850116\n177.5797,2.834589\n177.5058,2.818009\n177.5058,2.818009\n177.4923,2.815401\n177.4745,2.811858\n177.4675,2.818355\n177.4551,2.808218\n177.4349,2.804530\n177.4292,2.818604\n177.4071,2.804513\n177.3960,2.808776\n177.3909,2.818805\n177.3909,2.818805\n177.3849,2.812942\n177.3738,2.817060\n177.2469,2.865505\n177.1596,2.892311\n177.0934,2.909339\n177.0429,2.912202\n177.0151,2.911960\n177.0129,2.926702\n176.9866,2.911669\n176.9821,2.924732\n176.9747,2.921196\n176.9658,2.917563\n176.9565,2.911281\n176.9565,2.911281\n176.9561,2.913881\n176.9203,2.905078\n176.8559,2.887060\n176.7086,2.841781\n176.7066,2.854349\n176.6892,2.854338\n176.6808,2.842847\n176.6723,2.846735\n176.6710,2.854326\n176.6649,2.856273\n176.6622,2.850573\n176.6514,2.854314\n176.6514,2.854314\n176.6068,2.880581\n176.5960,2.956238\n176.5924,2.930822\n176.5893,2.905517\n176.5801,2.981505\n176.5248,3.006364\n176.4251,3.021681\n176.4100,3.030556\n176.4100,3.030556\n176.4069,3.021670\n176.3872,3.021657\n176.3667,3.021644\n176.3659,3.025817\n176.3262,3.018095\n176.2571,2.998171\n176.2567,3.000771\n176.2567,3.000771\n176.2397,2.993112\n176.2247,3.001121\n176.2208,2.987956\n176.2012,2.982750\n176.1913,3.001372\n176.1738,2.982733\n176.1650,2.988514\n176.1571,3.001575\n176.1571,3.001575\n176.1547,2.994198\n176.1436,2.999833\n176.1260,3.026151\n176.0711,3.063064\n175.9974,3.098014\n175.9249,3.105878\n175.9095,3.116703\n175.9095,3.116703\n175.8976,3.105861\n175.8702,3.105843\n175.8494,3.107997\n175.8429,3.105826\n175.7893,3.099291\n175.7293,3.090585\n175.7293,3.090585\n175.7024,3.087751\n175.6882,3.090928\n175.6844,3.087515\n175.6649,3.087229\n175.6463,3.091174\n175.6446,3.086847\n175.6030,3.091371\n175.6030,3.091371\n175.4998,3.120127\n175.4996,3.121363\n175.4994,3.122502\n175.4992,3.123594\n175.4391,3.148412\n175.3489,3.175498\n175.3214,3.173971\n175.3055,3.188264\n175.3055,3.188264\n175.2941,3.173954\n175.2661,3.173936\n175.2576,3.177438\n175.2365,3.173917\n175.1918,3.170020\n175.1532,3.164763\n175.1260,3.164745\n175.0980,3.164727\n175.0685,3.164708\n175.0273,3.168366\n175.0273,3.168366\n174.9750,3.187587\n174.9532,3.188038\n174.9527,3.191714\n174.9521,3.195341\n174.9515,3.198872\n174.9042,3.218738\n174.8617,3.233053\n174.8453,3.251896\n174.8416,3.252913\n174.8372,3.253833\n174.8313,3.254704\n174.2959,3.277763\n174.2957,3.278999\n174.2955,3.280138\n174.2954,3.281230\n174.2319,3.322578\n174.2239,3.324459\n174.2145,3.326243\n174.2043,3.327978\n174.2026,3.338812\n174.2022,3.341195\n174.2018,3.343579\n174.2015,3.345962\n174.0597,3.374692\n173.9785,3.379551\n173.9082,3.381961\n173.8216,3.379955\n173.8082,3.380588\n173.7947,3.381174\n173.7943,3.383621\n173.7943,3.383621\n173.7813,3.381662\n173.7698,3.391406\n173.7452,3.399192\n173.7207,3.406977\n173.7207,3.406977\n173.6946,3.403276\n173.6770,3.403265\n173.6578,3.403252\n173.6389,3.404973\n173.6380,3.403239\n173.5777,3.404428\n173.4846,3.404873\n173.4846,3.404873\n173.4292,3.414091\n173.3297,3.417405\n173.1944,3.414652\n173.1866,3.415513\n173.1804,3.419193\n173.1804,3.419193\n173.1774,3.416374\n173.1675,3.417235\n173.1532,3.423445\n173.1252,3.427600\n173.0957,3.431706\n173.0957,3.431706\n173.0925,3.430557\n173.0885,3.429310\n173.0831,3.428014\n173.0831,3.428014\n173.0128,3.426138\n172.9666,3.425434\n172.9050,3.425297\n172.9050,3.425297\n172.8599,3.428622\n172.8094,3.434882\n172.7100,3.449439\n172.7100,3.449439\n172.6973,3.445747\n172.6709,3.445730\n172.6437,3.445712\n172.6189,3.448866\n172.6150,3.445693\n172.5651,3.449280\n172.5024,3.451036\n172.5024,3.451036\n172.5021,3.452922\n172.5018,3.454712\n172.5015,3.456453\n172.4758,3.452969\n172.4554,3.451214\n172.4335,3.449410\n172.4109,3.447509\n172.4109,3.447509\n172.3877,3.449010\n172.3645,3.450512\n172.3413,3.452014\n172.3413,3.452014\n172.2100,3.452858\n172.1203,3.454693\n172.0685,3.457901\n172.0422,3.457883\n172.0152,3.457865\n171.9871,3.456113\n171.9871,3.456113\n171.9868,3.457847\n171.9617,3.450181\n171.9356,3.444152\n171.9081,3.438075\n171.9081,3.438075\n171.8782,3.441739\n171.8550,3.437815\n171.8423,3.441490\n171.8065,3.441194\n171.8004,3.437506\n171.7707,3.440800\n171.7452,3.437100\n171.7452,3.437100\n171.7153,3.434198\n171.6841,3.431200\n171.6521,3.428153\n171.6521,3.428153\n171.5631,3.428021\n171.4800,3.427171\n171.3961,3.423431\n171.3704,3.421464\n171.3068,3.424720\n171.2588,3.425820\n171.2202,3.428731\n171.2012,3.429874\n171.1903,3.429867\n171.1781,3.428703\n171.1656,3.425878\n171.1656,3.425878\n171.0744,3.408697\n170.9832,3.391517\n170.8922,3.374336\n170.8911,3.381703\n170.8669,3.370852\n170.8650,3.382922\n170.8567,3.373871\n170.8466,3.376842\n170.8382,3.384044\n170.8365,3.379717\n170.8365,3.379717\n170.8099,3.385116\n170.7809,3.379182\n170.7238,3.378549\n170.6661,3.377868\n170.6661,3.377868\n170.6487,3.380016\n170.6476,3.394108\n170.6318,3.391714\n170.6300,3.382114\n170.6152,3.389319\n170.6105,3.384115\n170.6105,3.384115\n170.5972,3.386923\n170.5368,3.383704\n170.4854,3.381719\n170.4125,3.376830\n170.4125,3.376830\n170.4121,3.379431\n170.3951,3.379419\n170.3767,3.379407\n170.3701,3.377067\n170.3576,3.379394\n170.3283,3.378892\n170.2512,3.383872\n170.2512,3.383872\n170.2219,3.386670\n170.1706,3.386635\n170.1186,3.386600\n170.0653,3.386564\n170.0303,3.381002\n169.8136,3.373511\n169.8026,3.371866\n169.7412,3.371600\n169.6785,3.371284\n169.6151,3.370872\n169.5394,3.367136\n169.5394,3.367136\n169.5302,3.365115\n169.5209,3.362998\n169.5117,3.360833\n169.5117,3.360833\n169.4958,3.360822\n169.4791,3.360811\n169.4610,3.360798\n169.4610,3.360798\n169.4254,3.350862\n169.3376,3.337471\n169.2281,3.328351\n169.2281,3.328351\n169.1947,3.319066\n169.1288,3.315441\n169.1254,3.317445\n169.0777,3.318705\n169.0293,3.319916\n168.9796,3.321029\n168.9796,3.321029\n168.9765,3.319879\n168.9727,3.318633\n168.9676,3.317337\n168.9553,3.314728\n168.9553,3.314728\n168.9431,3.311461\n168.9301,3.308146\n168.9158,3.304733\n168.9147,3.311883\n168.9076,3.311011\n168.8991,3.310139\n168.8909,3.302765\n168.8907,3.304057\n168.8905,3.305301\n168.8903,3.306449\n168.8903,3.306449\n168.8899,3.309266\n168.7949,3.306752\n168.7859,3.310061\n168.7199,3.309791\n168.6981,3.306958\n168.6539,3.309472\n168.6008,3.307116\n168.6008,3.307116\n168.5880,3.309058\n168.3198,3.296031\n168.0845,3.284222\n168.0720,3.283988\n168.0596,3.283707\n168.0472,3.283329\n167.9732,3.280517\n167.9327,3.276965\n167.9039,3.276078\n167.8737,3.275191\n167.8428,3.274302\n167.7507,3.266003\n167.7507,3.266003\n167.7256,3.267936\n167.6791,3.267029\n167.6326,3.266074\n167.5862,3.265022\n167.4693,3.258656\n167.4322,3.257763\n167.3944,3.256870\n167.3851,3.254410\n167.3552,3.255976\n167.0609,3.240383\n167.0486,3.240150\n167.0363,3.239868\n167.0334,3.238093\n167.0240,3.239491\n166.8589,3.231356\n166.8466,3.231123\n166.8335,3.230841\n166.8191,3.230462\n166.6868,3.220166\n166.3366,3.203744\n166.3258,3.207576\n166.2256,3.203604\n166.1255,3.199633\n166.0255,3.195661\n165.9743,3.191940\n165.9743,3.191940\n165.9227,3.191037\n165.8894,3.189496\n165.8562,3.187956\n165.8230,3.186415\n165.8002,3.181599\n165.7237,3.180060\n165.6957,3.179173\n165.6662,3.178285\n165.6362,3.177397\n165.5502,3.173033\n165.3995,3.160108\n165.3995,3.160108\n165.3751,3.161824\n165.3629,3.161591\n165.3501,3.161309\n165.3359,3.160929\n165.2252,3.154565\n165.2042,3.153676\n165.1832,3.152738\n165.1623,3.151703\n165.1262,3.145979\n165.0999,3.145374\n165.0849,3.144272\n165.0692,3.143121\n165.0522,3.141872\n164.9011,3.123264\n164.6585,3.101932\n164.6585,3.101932\n164.5958,3.091766\n164.4964,3.078058\n164.3877,3.070314\n164.3877,3.070314\n164.3406,3.065729\n164.3286,3.065496\n164.3159,3.065214\n164.3020,3.064834\n164.1512,3.046691\n164.0958,3.047565\n164.0839,3.047332\n164.0712,3.047050\n164.0573,3.046670\n163.9988,3.040127\n163.9751,3.038376\n163.9508,3.036624\n163.9252,3.034872\n163.8753,3.031152\n163.8636,3.030276\n163.8518,3.029401\n163.8401,3.028526\n163.7787,3.021980\n163.7631,3.021102\n163.7500,3.017745\n163.7463,3.020222\n163.7287,3.019343\n163.4367,2.992908\n163.4367,2.992908\n163.4129,2.994841\n163.4011,2.994607\n163.3893,2.994326\n163.3776,2.993948\n163.3587,2.989199\n163.2932,2.985651\n163.2697,2.984767\n163.2543,2.982629\n163.2455,2.983883\n163.2200,2.982997\n163.1946,2.974744\n163.1946,2.974744\n163.1708,2.976677\n163.1473,2.975784\n163.1427,2.973028\n163.1232,2.974844\n163.0993,2.970789\n163.0977,2.973806\n163.0753,2.965771\n163.0753,2.965771\n163.0513,2.969437\n163.0431,2.964881\n163.0242,2.967900\n163.0110,2.963990\n162.9959,2.966363\n162.9788,2.963099\n162.9788,2.963099\n162.9703,2.960926\n162.9668,2.964824\n162.9618,2.958753\n162.9533,2.956580\n162.9533,2.956580\n162.9293,2.960246\n162.9181,2.955462\n162.8973,2.958705\n162.8823,2.954296\n162.8652,2.957165\n162.8453,2.953033\n162.8453,2.953033\n162.8332,2.955624\n162.8104,2.951056\n162.8018,2.950183\n162.7931,2.949310\n162.7844,2.948437\n162.7121,2.942099\n162.6802,2.940558\n162.6482,2.939018\n162.6391,2.933654\n162.6163,2.937477\n162.5935,2.932910\n162.5382,2.931504\n162.4822,2.930002\n162.4249,2.928450\n162.3758,2.925597\n162.3188,2.921545\n161.9523,2.915252\n##END=\n'