b'##TITLE=Pyridine, 2-bromo-\n##JCAMP-DX=4.24\n##DATA TYPE=UV/VIS SPECTRUM\n##ORIGIN=INSTITUTE OF ENERGY PROBLEMS OF CHEMICAL PHYSICS, RAS\n##OWNER=INEP CP RAS, NIST OSRD\nCollection (C) 2007 copyright by the U.S. Secretary of Commerce\non behalf of the United States of America. All rights reserved.\n##CAS REGISTRY NO=109-04-6\n##MOLFORM=C5H4BrN\n##BP=193; 75(13)\n##SOURCE REFERENCE=RAS UV No. 798\n##$NIST SQUIB=1954STE1077-1082\n##$NIST SOURCE=TSGMTE\n##SPECTROMETER/DATA SYSTEM=Beckman spectrophotometer\n##XUNITS=Wavelength (nm)\n##YUNITS=Logarithm epsilon\n##XFACTOR=1.000000\n##YFACTOR=1.000000\n##FIRSTX=282.5225\n##LASTX=223.8417\n##FIRSTY=1.89728\n##MAXX=282.522\n##MINX=223.842\n##MAXY=3.47062\n##MINY=1.89728\n##NPOINTS=253\n##$REF AUTHOR=Stephenson, H.P.\n##$REF TITLE=Solution spectra and oscillator strengths of electronic transitions of pyridine and some monosubstituted derivatives\n##$REF JOURNAL=J. Chem. Phys.\n##$REF VOLUME=22\n##$REF NUMBER=6\n##$REF PAGE=1077-1082\n##$REF DATE=1954\n##XYPOINTS=(XY..XY)\n282.5225,1.897283\n281.7491,2.032301\n280.8656,2.168876\n280.8656,2.168876\n280.3579,2.286208\n279.8464,2.378502\n279.3339,2.454584\n279.3339,2.454584\n278.4357,2.613066\n277.8941,2.687875\n277.6957,2.746856\n277.6335,2.747916\n277.6180,2.723856\n277.5764,2.757029\n277.5713,2.748862\n277.5188,2.740251\n277.5090,2.749580\n277.5090,2.749580\n277.4898,2.759079\n277.4032,2.761010\n277.3196,2.767588\n277.3165,2.762715\n277.3165,2.762715\n277.3143,2.759270\n277.3121,2.755799\n277.3099,2.752299\n277.1919,2.799423\n277.1274,2.780197\n277.0699,2.787705\n277.0645,2.829074\n277.0123,2.794984\n276.9545,2.801944\n276.9376,2.856820\n276.8111,2.882891\n276.6851,2.907479\n276.5596,2.930742\n276.4347,2.952816\n276.3105,2.973817\n276.1869,2.993844\n276.0641,3.012983\n275.9420,3.031311\n275.8207,3.048892\n275.7002,3.065786\n275.5806,3.082044\n275.4620,3.097713\n275.3443,3.112833\n275.2276,3.127443\n275.1119,3.141575\n274.9973,3.155259\n274.8839,3.168525\n274.7716,3.181395\n274.6605,3.193894\n274.5507,3.206042\n274.4421,3.217859\n274.3349,3.229362\n274.2290,3.240568\n274.1246,3.251492\n274.0215,3.262147\n273.9200,3.272547\n273.8200,3.282704\n273.7216,3.292628\n273.6247,3.302332\n273.6247,3.302332\n273.4636,3.307439\n273.2832,3.310984\n272.9564,3.314114\n272.9564,3.314114\n272.4369,3.308292\n272.1561,3.300818\n271.9607,3.292841\n271.6993,3.285595\n271.2213,3.280391\n270.3792,3.278583\n270.3792,3.278583\n270.2209,3.282793\n270.0627,3.286930\n269.9045,3.290963\n269.9045,3.290963\n269.7120,3.300778\n269.5251,3.310402\n269.3436,3.319841\n269.1674,3.329099\n268.9963,3.338181\n268.8303,3.347090\n268.6691,3.355831\n268.5127,3.364406\n268.3609,3.372821\n268.2137,3.381078\n268.0708,3.389181\n267.9322,3.397133\n267.7977,3.404937\n267.6672,3.412596\n267.5406,3.420113\n267.4177,3.427490\n267.2985,3.434730\n267.1828,3.441836\n267.0705,3.448811\n266.9615,3.455655\n266.9615,3.455655\n266.8598,3.456938\n266.7294,3.460677\n266.4588,3.469945\n266.4588,3.469945\n266.2975,3.470171\n266.1364,3.470397\n265.9755,3.470622\n265.9755,3.470622\n265.8931,3.467672\n265.8020,3.464648\n265.6858,3.460693\n265.5280,3.454912\n265.3120,3.446347\n265.0218,3.433919\n264.6412,3.416341\n264.6412,3.416341\n264.3679,3.408309\n264.0478,3.399909\n263.6305,3.391790\n263.0666,3.384646\n262.3079,3.379214\n262.3079,3.379214\n262.0523,3.380313\n261.6983,3.381539\n261.3354,3.383836\n261.3354,3.383836\n260.9664,3.391402\n260.7070,3.395930\n260.3350,3.401342\n260.3350,3.401342\n260.1883,3.401380\n260.0368,3.401418\n259.8830,3.401458\n259.8830,3.401458\n259.7021,3.397421\n259.5344,3.392679\n259.3932,3.389708\n259.3932,3.389708\n259.2412,3.381162\n259.0466,3.372377\n258.8123,3.363387\n258.5414,3.354230\n258.2368,3.344948\n257.9015,3.335584\n257.5387,3.326188\n257.1512,3.316813\n256.7421,3.307518\n256.1712,3.300515\n255.8583,3.295083\n255.5773,3.291093\n255.0882,3.285112\n254.6976,3.279915\n254.5465,3.278176\n254.3956,3.276431\n254.2449,3.274678\n253.9118,3.270706\n253.2957,3.263679\n252.7761,3.254783\n252.3293,3.244402\n251.9319,3.232944\n251.5611,3.220853\n251.2298,3.212892\n251.0792,3.208411\n250.9288,3.203883\n250.7786,3.199307\n250.3345,3.189155\n250.3014,3.187644\n250.2659,3.186046\n250.2258,3.184402\n249.7859,3.167952\n249.4173,3.154976\n249.1745,3.147824\n248.8491,3.140548\n248.2637,3.131298\n248.1273,3.128844\n247.9865,3.126378\n247.8437,3.123900\n245.6212,3.079572\n245.5569,3.077232\n245.4882,3.074828\n245.4172,3.072306\n245.0960,3.064989\n244.5133,3.051696\n243.9291,3.037929\n243.3454,3.023593\n242.8324,3.010025\n242.7160,3.008709\n242.5996,3.007328\n242.4832,3.005817\n241.5200,2.984138\n240.7949,2.976917\n240.0713,2.968654\n239.3430,2.959961\n238.6040,2.951500\n237.8483,2.943986\n237.0701,2.938178\n236.9317,2.936662\n236.5209,2.937031\n236.1114,2.937400\n235.7034,2.937769\n235.3261,2.941373\n234.5751,2.948035\n233.8936,2.955509\n233.2560,2.964213\n232.6371,2.974517\n232.0124,2.986743\n231.3579,3.001146\n231.3579,3.001146\n230.3734,3.033813\n229.8016,3.052594\n229.5190,3.060188\n229.5190,3.060188\n229.1752,3.074404\n228.9130,3.085570\n228.6480,3.097702\n228.2969,3.114362\n227.7775,3.138492\n227.6067,3.144947\n227.4456,3.156555\n227.2797,3.168819\n227.1112,3.181517\n226.9419,3.194443\n226.7737,3.207417\n226.6086,3.220274\n226.4485,3.232870\n226.2953,3.245079\n226.1509,3.256785\n226.0172,3.267888\n226.0172,3.267888\n225.9284,3.273424\n225.7735,3.285722\n225.5858,3.300966\n225.3985,3.315693\n225.2443,3.326865\n225.1561,3.331702\n225.1561,3.331702\n225.0613,3.341167\n224.9635,3.350441\n224.8640,3.359530\n224.7638,3.368438\n224.6639,3.377170\n224.5655,3.385732\n224.4697,3.394127\n224.3774,3.402361\n224.2898,3.410436\n224.2079,3.418357\n224.1328,3.426127\n224.0656,3.433750\n224.0072,3.441229\n223.9587,3.448568\n223.9587,3.448568\n223.9222,3.450868\n223.8838,3.453113\n223.8417,3.455324\n##END=\n'