b'##TITLE=Piperazine\n##JCAMP-DX=4.24\n##DATA TYPE=UV/VIS SPECTRUM\n##ORIGIN=INSTITUTE OF ENERGY PROBLEMS OF CHEMICAL PHYSICS, RAS\n##OWNER=INEP CP RAS, NIST OSRD\nCollection (C) 2007 copyright by the U.S. Secretary of Commerce\non behalf of the United States of America. All rights reserved.\n##CAS REGISTRY NO=110-85-0\n##MOLFORM=C4H10N2\n##MP=106\n##BP=146\n##SOURCE REFERENCE=RAS UV No. 12071\n##$NIST SQUIB=1953PIC/1618\n##$NIST SOURCE=TYUGLMTE\n##SPECTROMETER/DATA SYSTEM=Beckman DU\n##XUNITS=Wavelength (nm)\n##YUNITS=Logarithm epsilon\n##XFACTOR=1.0\n##YFACTOR=1.0\n##FIRSTX=166.04\n##LASTX=217.45\n##FIRSTY=3.595\n##MAXX=217.45\n##MINX=166.04\n##MAXY=3.679\n##MINY=3.379\n##NPOINTS=69\n##$REF AUTHOR=Pickett, L.W.; et al.\n##$REF JOURNAL=J. Am. Chem. Soc.\n##$REF VOLUME=75\n##$REF PAGE=1618\n##$REF DATE=1953\n##XYPOINTS=(XY..XY)\n166.04,3.595\n166.97,3.591\n167.91,3.586\n168.86,3.581\n169.70,3.575\n170.67,3.571\n171.65,3.567\n172.64,3.563\n173.65,3.560\n174.66,3.557\n175.82,3.558\n176.99,3.560\n177.92,3.566\n178.72,3.573\n179.52,3.579\n180.20,3.586\n181.02,3.592\n181.85,3.598\n182.54,3.604\n183.38,3.611\n184.09,3.617\n184.94,3.622\n185.81,3.627\n186.53,3.633\n187.41,3.638\n188.15,3.644\n189.04,3.650\n189.95,3.655\n190.70,3.660\n191.47,3.666\n192.39,3.671\n193.49,3.676\n194.75,3.679\n196.19,3.679\n197.49,3.677\n198.97,3.675\n200.13,3.671\n201.32,3.667\n202.34,3.663\n203.20,3.657\n204.07,3.651\n204.77,3.645\n205.30,3.638\n205.83,3.631\n206.36,3.623\n206.72,3.615\n207.08,3.607\n207.62,3.599\n207.98,3.591\n208.52,3.582\n208.89,3.574\n209.44,3.565\n209.80,3.556\n210.36,3.547\n210.73,3.537\n211.29,3.528\n211.66,3.518\n212.04,3.508\n212.61,3.497\n212.99,3.487\n213.56,3.476\n214.13,3.465\n214.52,3.454\n215.10,3.442\n215.48,3.430\n216.07,3.418\n216.66,3.405\n217.05,3.392\n217.45,3.379\n##END=\n'