b'##TITLE=Furan\n##JCAMP-DX=4.24\n##DATA TYPE=UV/VIS SPECTRUM\n##ORIGIN=INSTITUTE OF ENERGY PROBLEMS OF CHEMICAL PHYSICS, RAS\n##OWNER=INEP CP RAS, NIST OSRD\nCollection (C) 2007 copyright by the U.S. Secretary of Commerce\non behalf of the United States of America. All rights reserved.\n##CAS REGISTRY NO=110-00-9\n##MOLFORM=C4H4O\n##BP=32\n##SOURCE REFERENCE=RAS UV No. 19848\n##$NIST SQUIB=1967MASg1/1\n##$NIST SOURCE=TYUGLMTE\n##SPECTROMETER/DATA SYSTEM=Hilger Uvispek\n##XUNITS=Wavelength (nm)\n##YUNITS=Logarithm epsilon\n##XFACTOR=1.0\n##YFACTOR=1.0\n##FIRSTX=200.95\n##LASTX=232.28\n##FIRSTY=3.929\n##MAXX=232.28\n##MINX=200.95\n##MAXY=3.961\n##MINY=1.105\n##NPOINTS=106\n##$REF AUTHOR=Mason, S.F.\n##$REF JOURNAL=UV atlas of organic compounds\n##$REF VOLUME=3\n##$REF PAGE=G1/1\n##$REF DATE=1967\n##XYPOINTS=(XY..XY)\n200.95,3.929\n201.04,3.929\n201.13,3.931\n201.22,3.931\n201.31,3.931\n201.40,3.931\n201.49,3.933\n201.58,3.933\n201.67,3.933\n201.76,3.935\n201.85,3.935\n202.30,3.935\n202.75,3.937\n203.20,3.944\n203.66,3.946\n204.11,3.948\n204.57,3.952\n205.03,3.957\n205.50,3.957\n205.96,3.959\n206.43,3.961\n206.90,3.961\n207.37,3.961\n207.85,3.961\n208.32,3.959\n208.80,3.959\n209.28,3.957\n209.77,3.952\n210.25,3.948\n210.74,3.944\n211.23,3.937\n211.72,3.933\n212.22,3.927\n212.71,3.916\n213.21,3.908\n213.71,3.897\n214.22,3.886\n214.72,3.875\n215.23,3.863\n215.74,3.848\n216.26,3.831\n216.77,3.811\n217.29,3.790\n217.81,3.766\n218.33,3.734\n218.86,3.694\n219.39,3.651\n219.92,3.593\n220.45,3.531\n220.99,3.459\n221.53,3.424\n222.07,3.403\n222.61,3.390\n223.16,3.382\n223.71,3.373\n224.26,3.365\n224.81,3.356\n225.37,3.343\n225.93,3.315\n226.50,3.268\n227.06,3.241\n227.35,3.202\n227.63,3.121\n227.74,3.059\n227.86,3.014\n227.97,2.941\n228.09,2.883\n228.20,2.841\n228.32,2.779\n228.43,2.730\n228.55,2.689\n228.66,2.638\n228.78,2.597\n228.89,2.554\n229.01,2.505\n229.12,2.443\n229.24,2.390\n229.35,2.349\n229.47,2.298\n229.59,2.246\n229.70,2.195\n229.82,2.146\n229.93,2.097\n229.99,2.071\n230.04,2.045\n230.09,2.019\n230.17,1.994\n230.24,1.961\n230.33,1.923\n230.41,1.891\n230.53,1.858\n230.65,1.823\n230.75,1.793\n230.87,1.757\n230.99,1.708\n231.10,1.658\n231.22,1.601\n231.34,1.547\n231.46,1.475\n231.57,1.423\n231.69,1.363\n231.81,1.316\n231.93,1.257\n232.05,1.205\n232.17,1.152\n232.28,1.105\n##END=\n'