b'##TITLE=Piperidine\n##JCAMP-DX=4.24\n##DATA TYPE=UV/VIS SPECTRUM\n##ORIGIN=INSTITUTE OF ENERGY PROBLEMS OF CHEMICAL PHYSICS, RAS\n##OWNER=INEP CP RAS, NIST OSRD\nCollection (C) 2007 copyright by the U.S. Secretary of Commerce\non behalf of the United States of America. All rights reserved.\n##CAS REGISTRY NO=110-89-4\n##MOLFORM=C5H11N\n##MP=-11.03\n##BP=106.2\n##SOURCE REFERENCE=RAS UV No. 819\n##$NIST SQUIB=1953PIC/COR1618-1622\n##$NIST SOURCE=TSGMTE\n##SPECTROMETER/DATA SYSTEM=Fluorite prism vacuum spectrograph or Beckman DU\n##XUNITS=Wavelength (nm)\n##YUNITS=Logarithm epsilon\n##XFACTOR=1.000000\n##YFACTOR=1.000000\n##FIRSTX=240.6350\n##LASTX=163.1028\n##FIRSTY=2.0572\n##MAXX=240.635\n##MINX=163.103\n##MAXY=3.55062\n##MINY=2.0572\n##NPOINTS=316\n##$REF AUTHOR=Pickett, L.W.; Corning, M.E.; Wieder, G.M.; Semenow, D.A.; Buckley, J.M.\n##$REF TITLE=The vacuum ultraviolet spectra of cyclic compounds. III. Amines\n##$REF JOURNAL=J. Am. Chem. Soc.\n##$REF VOLUME=75\n##$REF PAGE=1618-1622\n##$REF DATE=1953\n##XYPOINTS=(XY..XY)\n240.6350,2.057201\n239.9934,2.057201\n239.3553,2.057201\n238.7205,2.057201\n236.9212,2.118649\n236.8079,2.128523\n236.6947,2.137461\n236.5816,2.144810\n234.4807,2.195662\n234.1121,2.203947\n233.7324,2.211472\n233.3479,2.217678\n231.5200,2.238630\n231.0798,2.238630\n230.6293,2.238630\n230.1746,2.238630\n228.7389,2.270660\n228.4213,2.280058\n228.0988,2.289257\n227.7655,2.298265\n226.2562,2.334593\n226.0754,2.332462\n225.8949,2.329861\n225.7146,2.326315\n224.4356,2.390311\n224.1298,2.402754\n223.8193,2.414849\n223.4984,2.426617\n222.4440,2.478166\n222.1547,2.482994\n221.9933,2.489367\n221.8211,2.502510\n220.5857,2.551203\n220.4620,2.563433\n220.3330,2.575066\n220.1932,2.585884\n218.6857,2.664519\n218.2572,2.675774\n218.0702,2.683695\n217.9636,2.695067\n217.0795,2.760498\n216.9844,2.776323\n216.8893,2.791434\n216.7944,2.805728\n215.4265,2.872393\n215.3562,2.874763\n215.2860,2.877121\n215.2158,2.879466\n214.5397,2.914819\n214.0724,2.940623\n213.7557,2.956578\n213.4758,2.975105\n212.9249,3.010666\n212.8563,3.012694\n212.7877,3.014522\n212.7191,3.016248\n212.5365,3.041928\n212.4841,3.044734\n212.4216,3.047522\n212.3541,3.050293\n211.9677,3.072592\n211.9157,3.075841\n211.8535,3.078903\n211.7864,3.081861\n211.4923,3.106810\n211.4689,3.108436\n211.4405,3.109903\n211.4020,3.111290\n211.0191,3.133346\n211.0191,3.136172\n211.0191,3.138838\n211.0191,3.141416\n210.6599,3.162333\n210.6599,3.164765\n210.6599,3.167183\n210.6599,3.169588\n210.2797,3.189221\n210.2797,3.190926\n210.2797,3.192561\n210.2797,3.194064\n209.7229,3.214540\n209.7229,3.216148\n209.7229,3.217692\n209.7229,3.219110\n209.3682,3.236412\n209.3682,3.238644\n209.3682,3.240750\n209.3682,3.242790\n208.9925,3.257236\n208.9419,3.260094\n208.8815,3.262825\n208.8162,3.265486\n208.4426,3.279208\n208.4426,3.281231\n208.4426,3.283141\n208.4426,3.284992\n208.0921,3.298120\n208.0921,3.300565\n208.0921,3.302997\n208.0921,3.305416\n207.7211,3.317950\n207.6711,3.320286\n207.6114,3.322611\n207.5469,3.324923\n207.3513,3.339556\n207.3015,3.341571\n207.2420,3.343531\n207.1778,3.345394\n206.8100,3.358589\n206.8100,3.359694\n206.8100,3.360711\n206.8100,3.361682\n206.4650,3.375892\n206.4156,3.377938\n206.3566,3.379974\n206.2929,3.382000\n206.0997,3.392532\n206.0505,3.395037\n205.9917,3.397526\n205.9283,3.400002\n205.7571,3.410111\n205.6930,3.412002\n205.6289,3.413885\n205.5649,3.415760\n205.3943,3.425513\n205.3454,3.426957\n205.2871,3.428324\n205.2240,3.429650\n204.9479,3.442470\n204.9259,3.443222\n204.8992,3.443901\n204.8631,3.444544\n204.3347,3.467632\n204.2863,3.468944\n204.2285,3.470185\n204.1661,3.471389\n203.9979,3.479981\n203.9348,3.481591\n203.8719,3.483196\n203.8089,3.484794\n203.6412,3.494406\n203.5932,3.495640\n203.5358,3.496807\n203.4739,3.497939\n203.2859,3.506026\n203.2380,3.507543\n203.1808,3.509055\n203.1191,3.510561\n201.9179,3.528897\n201.8089,3.529814\n201.6909,3.530728\n201.5685,3.531641\n199.1362,3.549625\n199.0554,3.549995\n198.9702,3.550337\n198.8762,3.550624\n196.4301,3.546490\n196.4099,3.545987\n196.3854,3.545482\n196.3522,3.544978\n195.4607,3.539129\n195.3836,3.538232\n195.3065,3.537333\n195.2295,3.536433\n194.5008,3.526136\n194.5008,3.526922\n194.5008,3.527677\n194.5008,3.528373\n194.0244,3.520695\n193.9808,3.519223\n193.9287,3.517747\n193.8725,3.516265\n193.3991,3.508231\n193.3558,3.507365\n193.3040,3.506435\n193.2481,3.505473\n192.9281,3.496671\n192.8529,3.495357\n192.7778,3.493975\n192.7028,3.492558\n192.3098,3.483632\n192.2670,3.482029\n192.2158,3.480421\n192.1605,3.478806\n191.8441,3.471389\n191.7698,3.470340\n191.6955,3.469289\n191.6213,3.468236\n191.2327,3.458790\n191.1582,3.457711\n191.0796,3.456629\n190.9930,3.455544\n190.7722,3.448347\n190.6749,3.446244\n190.5696,3.444060\n190.4603,3.441830\n190.0034,3.432441\n189.9116,3.430144\n189.8159,3.427834\n189.7122,3.425513\n189.4037,3.418641\n189.2770,3.416603\n189.1505,3.414517\n189.0241,3.412345\n188.5023,3.400002\n188.4611,3.398360\n188.4119,3.396632\n188.3588,3.394858\n187.9120,3.383468\n187.8407,3.381258\n187.7695,3.378995\n187.6983,3.376637\n187.3254,3.367992\n187.2015,3.365135\n187.0777,3.362259\n186.9541,3.359365\n186.5842,3.348780\n186.5438,3.346585\n186.4956,3.344334\n186.4436,3.341981\n185.8662,3.328472\n185.8138,3.326179\n185.7615,3.323873\n185.7093,3.321556\n185.2749,3.310863\n185.2351,3.308845\n185.1877,3.306721\n185.1364,3.304538\n184.4294,3.284992\n184.4116,3.283380\n184.3900,3.281762\n184.3608,3.280139\n183.8473,3.267405\n183.7791,3.265727\n183.7109,3.264042\n183.6427,3.262350\n183.2858,3.259435\n183.2305,3.251988\n183.1602,3.247984\n183.0148,3.244055\n182.3071,3.227848\n182.2183,3.225736\n182.1221,3.223555\n182.0223,3.221245\n181.6050,3.205528\n181.5211,3.204422\n181.4337,3.203314\n181.3389,3.202204\n177.6941,3.143967\n177.6097,3.143967\n177.5183,3.143967\n177.4234,3.143967\n176.3805,3.138850\n176.2973,3.138850\n176.2073,3.138850\n176.1138,3.138850\n175.2721,3.140135\n175.1280,3.141416\n174.9773,3.142694\n174.8234,3.143967\n173.9939,3.154646\n173.8870,3.156412\n173.7802,3.158034\n173.6735,3.159582\n170.3275,3.220179\n170.2499,3.222829\n170.1659,3.225404\n170.0788,3.227848\n169.4240,3.244055\n169.3655,3.246498\n169.3038,3.248817\n169.2358,3.251068\n168.6449,3.265486\n168.6449,3.266855\n168.6449,3.268114\n168.6449,3.269315\n167.9298,3.288653\n167.9298,3.290010\n167.9298,3.291312\n167.9298,3.292510\n167.2208,3.310863\n167.2208,3.312152\n167.2208,3.313389\n167.2208,3.314528\n166.5178,3.330132\n166.4856,3.332549\n166.4473,3.334862\n166.4058,3.337117\n165.9457,3.350365\n165.8721,3.353124\n165.7924,3.355865\n165.7096,3.358589\n165.3637,3.369697\n165.3637,3.374398\n165.2906,3.371018\n165.2906,3.374204\n165.2114,3.372336\n165.2114,3.373969\n165.1293,3.373650\n165.1293,3.373650\n165.1293,3.376637\n165.0600,3.378995\n164.9876,3.381258\n164.9093,3.383468\n164.4573,3.395571\n164.4573,3.396586\n164.4573,3.397520\n164.4573,3.398412\n163.8315,3.413714\n163.7768,3.415879\n163.7191,3.417959\n163.6555,3.419990\n163.1028,3.432441\n163.1028,3.433373\n163.1028,3.434231\n163.1028,3.435051\n##END=\n'