b'##TITLE=Pyridine\n##JCAMP-DX=4.24\n##DATA TYPE=UV/VIS SPECTRUM\n##ORIGIN=INSTITUTE OF ENERGY PROBLEMS OF CHEMICAL PHYSICS, RAS\n##OWNER=INEP CP RAS, NIST OSRD\nCollection (C) 2007 copyright by the U.S. Secretary of Commerce\non behalf of the United States of America. All rights reserved.\n##CAS REGISTRY NO=110-86-1\n##MOLFORM=C5H5N\n##MP=-41.6\n##BP=115.2\n##SOURCE REFERENCE=RAS UV No. 1112\n##$NIST SQUIB=1957ZAN/SCH2253\n##$NIST SOURCE=TSGMTE\n##SPECTROMETER/DATA SYSTEM=Zeiss PMQII\n##XUNITS=Wavelength (nm)\n##YUNITS=Logarithm epsilon\n##XFACTOR=1.000000\n##YFACTOR=1.000000\n##FIRSTX=390.3938\n##LASTX=202.3166\n##FIRSTY=2.88018\n##MAXX=390.394\n##MINX=202.317\n##MAXY=5.29113\n##MINY=2.69476\n##NPOINTS=382\n##$REF AUTHOR=Zanker, V.; Schmid, W.\n##$REF JOURNAL=Chem. Ber.\n##$REF VOLUME=90\n##$REF PAGE=2253\n##$REF DATE=1957\n##XYPOINTS=(XY..XY)\n390.3938,2.880178\n390.2997,2.929660\n390.2030,2.973276\n390.1030,3.012073\n389.9986,3.047097\n389.8889,3.079395\n389.7731,3.110015\n389.6501,3.140002\n389.5191,3.170404\n389.3793,3.202267\n389.2296,3.236637\n389.0691,3.274563\n388.8972,3.317090\n388.7126,3.365266\n388.5148,3.420136\n388.3026,3.482748\n388.3026,3.482748\n387.7670,3.505692\n387.3267,3.516298\n386.6051,3.523657\n386.6051,3.523657\n386.0303,3.522383\n385.4569,3.520927\n384.8850,3.519379\n384.8850,3.519379\n384.1379,3.482936\n382.9407,3.460890\n378.9728,3.447919\n378.9728,3.447919\n376.8848,3.397327\n375.7504,3.341393\n374.9105,3.284594\n374.9105,3.284594\n374.3707,3.284675\n373.8226,3.284756\n373.2562,3.284841\n373.2562,3.284841\n372.3290,3.336149\n371.4622,3.386331\n370.8958,3.436391\n370.8676,3.487332\n370.8676,3.487332\n370.4841,3.505187\n369.9229,3.547326\n369.2121,3.604869\n368.3799,3.668939\n367.4541,3.730657\n367.4541,3.730657\n367.0725,3.734399\n366.6916,3.738049\n366.3111,3.741516\n366.3111,3.741516\n365.7964,3.741064\n365.2829,3.740429\n364.7707,3.739703\n364.7707,3.739703\n362.9363,3.706365\n360.7715,3.686047\n356.8937,3.680985\n356.8937,3.680985\n356.3269,3.699262\n355.9929,3.726903\n355.6045,3.787604\n355.6045,3.787604\n355.1370,3.831822\n354.6443,3.910008\n354.1792,3.954227\n354.1792,3.954227\n353.8706,4.014078\n353.5616,4.050922\n353.3579,4.092404\n353.3579,4.092404\n352.8835,4.094827\n352.4101,4.097067\n352.4004,4.141454\n352.3804,4.128722\n352.3604,4.115989\n352.3405,4.103257\n351.9378,4.099216\n351.9378,4.099216\n350.8692,4.063698\n350.3999,4.023860\n350.2633,3.981213\n350.1967,3.937267\n349.9387,3.893534\n349.2298,3.851524\n347.8170,3.812747\n347.8170,3.812747\n346.2832,3.811948\n345.1390,3.814004\n343.6665,3.821689\n343.6665,3.821689\n343.4272,3.820484\n343.1714,3.819190\n342.9073,3.817715\n342.9073,3.817715\n342.6297,3.781536\n342.1826,3.743012\n340.9881,3.707544\n340.9881,3.707544\n340.4220,3.708453\n339.8412,3.709273\n339.2539,3.709912\n339.2539,3.709912\n338.7907,3.724466\n338.2059,3.766432\n337.0032,3.871780\n337.0032,3.871780\n336.4577,3.871348\n335.9056,3.870735\n335.3393,3.870034\n335.3393,3.870034\n334.7582,3.823764\n334.0559,3.776412\n333.3696,3.728625\n332.8342,3.681046\n332.5832,3.634321\n332.5832,3.634321\n332.3360,3.634368\n332.0891,3.634414\n331.8426,3.634461\n331.8426,3.634461\n331.6524,3.624105\n331.4621,3.613566\n331.2718,3.602935\n331.2718,3.602935\n330.8505,3.602194\n330.4302,3.601453\n330.0109,3.600711\n330.0109,3.600711\n329.6610,3.606530\n329.2963,3.612352\n328.9248,3.618175\n328.9248,3.618175\n328.5097,3.617723\n328.0955,3.617088\n327.6822,3.616362\n327.6822,3.616362\n326.3627,3.520812\n325.5521,3.468417\n325.0785,3.442686\n324.7747,3.427128\n324.7747,3.427128\n323.1644,3.434493\n322.3379,3.449191\n321.5637,3.472551\n321.5637,3.472551\n321.1018,3.472644\n320.6412,3.472738\n320.1820,3.472831\n320.1820,3.472831\n319.4453,3.425894\n318.6964,3.378920\n317.8811,3.331882\n316.9465,3.284751\n315.8412,3.237499\n315.8412,3.237499\n314.6028,3.212288\n313.3740,3.187076\n312.1548,3.161865\n312.1548,3.161865\n311.3896,3.125283\n310.7972,3.086746\n309.8709,3.013226\n309.8709,3.013226\n308.6164,3.012967\n307.3651,3.012528\n307.3507,3.018298\n307.1608,3.018340\n306.9577,3.018385\n306.7482,3.018431\n306.1104,3.012000\n306.1104,3.012000\n305.0155,2.965978\n303.9278,2.925013\n302.6925,2.887620\n301.1600,2.852319\n299.1884,2.817624\n296.6466,2.782056\n296.6466,2.782056\n295.8946,2.761694\n295.1465,2.741331\n294.4021,2.720968\n294.4021,2.720968\n293.0764,2.720041\n291.7565,2.719025\n290.4363,2.717829\n290.4363,2.717829\n290.0520,2.710925\n289.6686,2.703929\n289.2861,2.696751\n289.0168,2.694764\n288.4574,2.694905\n287.9002,2.695045\n287.3451,2.695185\n287.3451,2.695185\n286.9587,2.704610\n286.5672,2.713855\n286.1652,2.723011\n286.1652,2.723011\n285.9491,2.723872\n285.7216,2.724646\n285.4886,2.725238\n285.4886,2.725238\n284.0274,2.766329\n282.2699,2.797209\n280.2228,2.820796\n277.8949,2.840009\n275.2966,2.857770\n275.2966,2.857770\n273.6839,2.888470\n272.1050,2.920889\n270.5739,2.954667\n269.1042,2.989442\n267.7089,3.024856\n266.4006,3.060547\n266.3583,3.049711\n266.3560,3.047125\n266.3535,3.044356\n266.3509,3.041496\n265.1913,3.096154\n264.0928,3.131318\n263.1677,3.140223\n262.9333,3.173769\n262.6580,3.199203\n262.1069,3.238323\n262.1069,3.238323\n261.4417,3.249512\n261.2505,3.273338\n261.1506,3.296132\n261.1506,3.296132\n260.5244,3.332779\n260.5219,3.374126\n260.4706,3.415411\n259.7019,3.451873\n259.7019,3.451873\n259.1542,3.530131\n258.8225,3.574270\n258.6196,3.618186\n258.6196,3.618186\n258.3686,3.648165\n258.0252,3.709988\n257.6827,3.771811\n257.4336,3.801790\n257.4336,3.801790\n257.1505,3.899680\n256.8877,3.990123\n256.6444,4.073456\n256.4197,4.150015\n256.2128,4.220138\n256.0228,4.284161\n255.8489,4.342422\n255.6903,4.395256\n255.5463,4.443003\n255.4160,4.485998\n255.2986,4.524578\n255.1934,4.559081\n255.0997,4.589843\n255.0165,4.617201\n254.9433,4.641493\n254.8792,4.663054\n254.8234,4.682223\n254.7753,4.699336\n254.7342,4.714731\n254.6991,4.728743\n254.6695,4.741711\n254.6445,4.753971\n254.6234,4.765859\n254.6056,4.777714\n254.5902,4.789871\n254.5765,4.802669\n254.5765,4.802669\n254.3368,4.846888\n254.0840,4.925074\n253.8452,4.969293\n253.8452,4.969293\n253.6423,5.058576\n253.4904,5.123999\n253.3734,5.171148\n253.2753,5.205615\n253.1801,5.232987\n253.0719,5.258855\n252.9349,5.288806\n252.9349,5.288806\n252.6641,5.289701\n252.3847,5.290508\n252.1012,5.291134\n252.1012,5.291134\n251.8218,5.250058\n251.5594,5.208726\n251.2959,5.167193\n251.0136,5.125516\n250.6945,5.083751\n250.3212,5.041953\n249.8764,5.000180\n249.8764,5.000180\n249.2107,5.000981\n248.6247,5.003857\n248.0234,5.011486\n248.0234,5.011486\n247.8253,5.010306\n247.6231,5.009036\n247.4124,5.007586\n247.4124,5.007586\n246.2572,4.887927\n245.7818,4.843356\n245.5716,4.835669\n245.5716,4.835669\n244.9340,4.860434\n244.5756,4.885285\n244.1484,4.929835\n244.0831,4.919982\n244.0136,4.910040\n243.9355,4.899918\n243.9355,4.899918\n243.7234,4.895885\n243.5186,4.854956\n243.2913,4.813475\n243.0422,4.771585\n242.7724,4.729429\n242.4827,4.687152\n242.1740,4.644895\n241.8473,4.602804\n241.8473,4.602804\n241.3106,4.579472\n240.7975,4.562614\n239.8714,4.537782\n239.8714,4.537782\n239.3403,4.496070\n238.8034,4.454362\n238.2649,4.412654\n238.2649,4.412654\n237.4628,4.387692\n236.5170,4.359955\n235.6053,4.330656\n235.6053,4.330656\n235.5334,4.284087\n235.2166,4.239323\n234.6958,4.195732\n234.0128,4.152683\n233.2091,4.109545\n232.3255,4.065687\n232.3255,4.065687\n231.2333,4.028230\n230.1190,3.987512\n228.9280,3.947282\n227.6082,3.911290\n226.1101,3.883284\n226.1101,3.883284\n225.6042,3.883491\n225.0970,3.883700\n224.5849,3.883912\n224.5849,3.883912\n223.3142,3.919057\n222.0997,3.954003\n220.9418,3.991851\n220.9418,3.991851\n220.7866,3.993972\n220.6282,3.996094\n220.4631,3.998219\n220.4631,3.998219\n220.0905,4.019119\n219.2920,4.040843\n218.5748,4.058609\n218.5748,4.058609\n218.0917,4.059383\n217.6262,4.063529\n216.7823,4.074600\n216.7823,4.074600\n214.8758,4.077615\n212.9473,4.079926\n211.0115,4.081344\n211.0115,4.081344\n209.4601,4.065050\n207.9103,4.038359\n206.9189,3.998259\n206.9189,3.998259\n206.0615,3.978809\n205.1076,3.948101\n204.1234,3.910542\n203.1726,3.870541\n202.3166,3.832504\n##END=\n'