b'##TITLE=Thiophene, tetrahydro-\n##JCAMP-DX=4.24\n##DATA TYPE=UV/VIS SPECTRUM\n##ORIGIN=INSTITUTE OF ENERGY PROBLEMS OF CHEMICAL PHYSICS, RAS\n##OWNER=INEP CP RAS, NIST OSRD\nCollection (C) 2007 copyright by the U.S. Secretary of Commerce\non behalf of the United States of America. All rights reserved.\n##CAS REGISTRY NO=110-01-0\n##MOLFORM=C4H8S\n##MP=- 96.1\n##BP=121\n##SOURCE REFERENCE=RAS UV No. 10651\n##$NIST SQUIB=1949FEH/CAR84\n##$NIST SOURCE=TYUGLMTE\n##SPECTROMETER/DATA SYSTEM=Beckman DU\n##XUNITS=Wavelength (nm)\n##YUNITS=Logarithm epsilon\n##XFACTOR=1.0\n##YFACTOR=1.0\n##FIRSTX=204.04\n##LASTX=268.24\n##FIRSTY=5.889\n##MAXX=268.24\n##MINX=204.04\n##MAXY=6.052\n##MINY=0.317\n##NPOINTS=66\n##$REF AUTHOR=Fehnel, E.A.; Carmack, M.\n##$REF JOURNAL=J. Am. Chem. Soc.\n##$REF VOLUME=71\n##$REF PAGE=84\n##$REF DATE=1949\n##XYPOINTS=(XY..XY)\n204.04,5.889\n204.29,5.909\n204.55,5.919\n204.80,5.930\n205.05,5.950\n205.30,5.960\n205.55,5.971\n205.80,5.991\n206.05,6.001\n206.30,6.012\n207.05,6.032\n209.06,6.052\n210.06,6.042\n211.07,6.042\n212.07,6.022\n213.07,5.981\n214.08,5.950\n215.08,5.930\n216.08,5.889\n217.08,5.827\n218.09,5.766\n219.09,5.695\n220.09,5.603\n221.10,5.521\n222.10,5.388\n223.10,5.327\n224.11,5.183\n225.11,4.989\n226.11,4.846\n227.12,4.693\n228.12,4.570\n229.12,4.345\n230.13,4.192\n231.13,4.028\n232.13,3.916\n233.13,3.813\n234.14,3.721\n236.14,3.599\n238.15,3.507\n239.15,3.466\n240.16,3.425\n241.16,3.394\n242.16,3.343\n244.17,3.251\n246.18,3.139\n247.18,3.067\n248.18,3.006\n249.18,2.914\n250.19,2.852\n251.19,2.760\n252.19,2.679\n253.20,2.587\n254.20,2.454\n255.20,2.331\n256.21,2.198\n257.21,2.075\n258.21,1.942\n259.22,1.810\n260.22,1.677\n261.22,1.503\n262.23,1.339\n264.23,1.002\n265.24,0.859\n266.24,0.695\n267.24,0.491\n268.24,0.317\n##END=\n'