b'##TITLE=1-Pentanethiol\n##JCAMP-DX=4.24\n##DATA TYPE=UV/VIS SPECTRUM\n##ORIGIN=INSTITUTE OF ENERGY PROBLEMS OF CHEMICAL PHYSICS, RAS\n##OWNER=INEP CP RAS, NIST OSRD\nCollection (C) 2007 copyright by the U.S. Secretary of Commerce\non behalf of the United States of America. All rights reserved.\n##CAS REGISTRY NO=110-66-7\n##MOLFORM=C5H12S\n##MP=-75.7\n##BP=126.6\n##SOURCE REFERENCE=RAS UV No. 2871\n##$NIST SQUIB=1954HAI/HEL270-278\n##$NIST SOURCE=TSGMTE\n##SPECTROMETER/DATA SYSTEM=Beckman DU\n##XUNITS=Wavelength (nm)\n##YUNITS=Logarithm epsilon\n##XFACTOR=1.000000\n##YFACTOR=1.000000\n##FIRSTX=210.3185\n##LASTX=276.2366\n##FIRSTY=2.54341\n##MAXX=276.237\n##MINX=210.319\n##MAXY=2.54341\n##MINY=0.070592\n##NPOINTS=149\n##$REF AUTHOR=Haines, W.E.; Helm, R.V.; Bailey, c.W.; Ball, J.S.\n##$REF TITLE=Purification and properties of ten organic sulfur compounds\n##$REF JOURNAL=J. Phys. Chem.\n##$REF VOLUME=58\n##$REF PAGE=270-278\n##$REF DATE=1954\n##XYPOINTS=(XY..XY)\n210.3185,2.543410\n210.6923,2.512997\n210.9169,2.499640\n211.1846,2.491890\n211.8666,2.448687\n211.9854,2.448666\n212.1041,2.448644\n212.2228,2.448622\n212.2228,2.448622\n212.3748,2.438485\n212.5869,2.427599\n212.7379,2.414148\n213.0901,2.401244\n213.2334,2.376978\n213.5372,2.359956\n214.3950,2.343015\n214.3950,2.343015\n215.0654,2.306626\n216.2065,2.269323\n217.7068,2.247969\n217.7068,2.247969\n217.8908,2.237642\n218.2141,2.226828\n218.5781,2.213431\n218.5781,2.213431\n219.1034,2.212076\n219.6287,2.210630\n220.1539,2.209000\n220.4246,2.206879\n221.6799,2.210861\n223.3880,2.216829\n225.3392,2.222754\n227.3237,2.226602\n229.1317,2.226340\n230.5533,2.219935\n230.5533,2.219935\n230.6710,2.216600\n231.1051,2.212655\n232.2276,2.204717\n233.6312,2.191620\n234.2952,2.183628\n234.9667,2.175635\n235.6420,2.167641\n236.9588,2.147932\n237.1953,2.144990\n237.4318,2.142047\n237.6683,2.139104\n239.4059,2.108963\n239.7816,2.101024\n240.1648,2.093084\n240.5518,2.085143\n241.8646,2.052594\n242.3241,2.041204\n242.7910,2.029628\n243.2616,2.017959\n244.6573,1.979182\n244.9143,1.971265\n245.1788,1.963347\n245.4471,1.955427\n246.5720,1.918357\n246.8905,1.906271\n247.2090,1.894094\n247.5274,1.881732\n248.3159,1.853836\n248.6012,1.841756\n248.8901,1.829584\n249.1866,1.817225\n250.4107,1.771853\n250.6021,1.759193\n250.7802,1.751965\n251.0974,1.743975\n252.1363,1.702779\n252.3210,1.692742\n252.6256,1.680383\n252.9221,1.666184\n253.7080,1.629590\n253.9783,1.620305\n254.2251,1.607803\n254.6621,1.588823\n255.4466,1.547673\n255.6560,1.534072\n255.9586,1.517510\n256.3152,1.504436\n256.9999,1.469931\n257.2338,1.458582\n257.4677,1.447048\n257.7016,1.435424\n258.3851,1.396776\n258.6399,1.381803\n258.9022,1.366737\n259.1682,1.351485\n259.7675,1.314924\n259.9049,1.304131\n260.0498,1.293334\n260.1985,1.282538\n260.9817,1.237245\n261.1815,1.225180\n261.3813,1.213026\n261.5810,1.200686\n262.3642,1.155394\n262.5307,1.143336\n262.7010,1.131185\n262.8787,1.118850\n263.5771,1.073572\n263.7436,1.061513\n263.9139,1.049365\n264.0916,1.037028\n264.7900,0.991749\n264.9894,0.978336\n265.1887,0.964740\n265.3880,0.951051\n266.1699,0.901616\n266.3688,0.886654\n266.5677,0.871596\n266.7666,0.856354\n267.3619,0.806960\n267.5282,0.794070\n267.6982,0.781094\n267.8757,0.767927\n268.7391,0.707706\n268.9052,0.694298\n269.0750,0.680707\n269.2523,0.667023\n269.7811,0.621778\n269.9470,0.607541\n270.1165,0.593120\n270.2936,0.578605\n270.8075,0.539991\n270.9736,0.526585\n271.1434,0.512991\n271.3207,0.499302\n271.8312,0.449509\n272.0310,0.437449\n272.2307,0.425290\n272.4305,0.412947\n273.0414,0.358981\n273.2863,0.340385\n273.3756,0.330393\n273.3857,0.320396\n274.0652,0.268905\n274.2302,0.251784\n274.3988,0.234467\n274.5750,0.217036\n275.1046,0.174292\n275.2706,0.160589\n275.4404,0.146872\n275.6177,0.133187\n275.9483,0.105374\n276.2366,0.070592\n##END=\n'