b'##TITLE=Dihydropyran\n##JCAMP-DX=4.24\n##DATA TYPE=UV/VIS SPECTRUM\n##ORIGIN=INSTITUTE OF ENERGY PROBLEMS OF CHEMICAL PHYSICS, RAS\n##OWNER=INEP CP RAS, NIST OSRD\nCollection (C) 2007 copyright by the U.S. Secretary of Commerce\non behalf of the United States of America. All rights reserved.\n##CAS REGISTRY NO=110-87-2\n##MOLFORM=C5H8O\n##BP=86\n##SOURCE REFERENCE=RAS UV No. 4876\n##$NIST SQUIB=1952EGL/JON2873-2882\n##$NIST SOURCE=TSGMTE\n##SPECTROMETER/DATA SYSTEM=n.i.g.\n##XUNITS=Wavelength (nm)\n##YUNITS=Logarithm epsilon\n##XFACTOR=1.000000\n##YFACTOR=1.000000\n##FIRSTX=206.3738\n##LASTX=223.6809\n##FIRSTY=3.6425\n##MAXX=223.681\n##MINX=206.374\n##MAXY=3.6425\n##MINY=2.922\n##NPOINTS=122\n##$REF AUTHOR=Eglinton, G.; Jones, E.R.H.; Whiting, M.C.\n##$REF TITLE=Researches on acetylenic compounds. Part XXXVIII. A new method for the introduction of the acetylenic linkage\n##$REF JOURNAL=J. Chem. Soc.\n##$REF PAGE=2873-2882\n##$REF DATE=1952\n##XYPOINTS=(XY..XY)\n206.3738,3.642501\n206.5115,3.639702\n206.6290,3.637318\n206.7365,3.635170\n206.8441,3.633071\n206.9618,3.630834\n207.0997,3.628266\n207.2679,3.625168\n207.4766,3.621335\n207.7357,3.616552\n208.0554,3.610590\n208.0554,3.610590\n208.1981,3.607509\n208.3408,3.604404\n208.4834,3.601274\n208.6260,3.598118\n208.7686,3.594937\n208.9112,3.591730\n209.0537,3.588496\n209.1963,3.585235\n209.3388,3.581947\n209.4812,3.578632\n209.6237,3.575288\n209.7661,3.571916\n209.9086,3.568515\n210.0510,3.565085\n210.1933,3.561625\n210.3357,3.558135\n210.4781,3.554614\n210.6204,3.551062\n210.7627,3.547479\n210.9050,3.543863\n211.0473,3.540215\n211.1895,3.536533\n211.3317,3.532818\n211.4740,3.529069\n211.6162,3.525285\n211.7584,3.521465\n211.9005,3.517609\n212.0427,3.513717\n212.1849,3.509788\n212.3270,3.505820\n212.4691,3.501814\n212.6112,3.497769\n212.7533,3.493684\n212.8954,3.489558\n213.0374,3.485391\n213.1795,3.481181\n213.3215,3.476929\n213.4636,3.472632\n213.6056,3.468291\n213.7476,3.463905\n213.8896,3.459472\n214.0316,3.454992\n214.1736,3.450463\n214.3155,3.445885\n214.4575,3.441257\n214.5994,3.436578\n214.7414,3.431846\n214.8833,3.427061\n215.0252,3.422221\n215.1672,3.417326\n215.3091,3.412373\n215.4510,3.407362\n215.5929,3.402291\n215.7348,3.397159\n215.8766,3.391965\n216.0185,3.386707\n216.1604,3.381384\n216.3023,3.375994\n216.4441,3.370535\n216.5860,3.365006\n216.7278,3.359405\n216.8697,3.353730\n217.0115,3.347979\n217.1534,3.342151\n217.2952,3.336243\n217.4371,3.330253\n217.5789,3.324179\n217.7207,3.318019\n217.8626,3.311770\n218.0044,3.305429\n218.1462,3.298995\n218.2881,3.292463\n218.4299,3.285832\n218.5718,3.279099\n218.7136,3.272260\n218.8554,3.265312\n218.9973,3.258251\n219.1391,3.251074\n219.2809,3.243778\n219.4228,3.236357\n219.5646,3.228808\n219.7065,3.221127\n219.8483,3.213309\n219.9902,3.205348\n220.1321,3.197240\n220.2739,3.188980\n220.4158,3.180561\n220.5577,3.171977\n220.6996,3.163222\n220.8414,3.154289\n220.9833,3.145171\n221.1252,3.135860\n221.2671,3.126347\n221.4091,3.116623\n221.5510,3.106680\n221.6929,3.096507\n221.8348,3.086093\n221.9768,3.075427\n222.1187,3.064496\n222.2607,3.053287\n222.4027,3.041785\n222.5447,3.029975\n222.6867,3.017839\n222.8287,3.005360\n222.9707,2.992517\n223.1127,2.979287\n223.2547,2.965649\n223.3968,2.951574\n223.5388,2.937035\n223.6809,2.922000\n##END=\n'