b'##TITLE=3-Penten-2-one, 4-amino-\n##JCAMP-DX=4.24\n##DATA TYPE=UV/VIS SPECTRUM\n##ORIGIN=INSTITUTE OF ENERGY PROBLEMS OF CHEMICAL PHYSICS, RAS\n##OWNER=INEP CP RAS, NIST OSRD\nCollection (C) 2007 copyright by the U.S. Secretary of Commerce\non behalf of the United States of America. All rights reserved.\n##CAS REGISTRY NO=1118-66-7\n##MOLFORM=C5H9NO\n##MP=38-39\n##SOURCE REFERENCE=RAS UV No. 11201\n##$NIST SQUIB=1949CRO/WAT411\n##$NIST SOURCE=TYUGLMTE\n##SPECTROMETER/DATA SYSTEM=Beckman DU\n##XUNITS=Wavelength (nm)\n##YUNITS=Logarithm epsilon\n##XFACTOR=1.0\n##YFACTOR=1.0\n##FIRSTX=203.02\n##LASTX=316.83\n##FIRSTY=3.134\n##MAXX=316.83\n##MINX=203.02\n##MAXY=3.825\n##MINY=3.091\n##NPOINTS=62\n##$REF AUTHOR=Cromwell, N.H.; Watson, W.R.\n##$REF JOURNAL=J. Org. Chem.\n##$REF VOLUME=14\n##$REF PAGE=411\n##$REF DATE=1949\n##XYPOINTS=(XY..XY)\n203.02,3.134\n205.28,3.120\n207.42,3.111\n210.03,3.101\n212.43,3.098\n214.43,3.096\n216.84,3.096\n218.84,3.106\n221.11,3.120\n223.37,3.134\n225.66,3.151\n227.89,3.173\n230.27,3.208\n232.25,3.240\n234.42,3.272\n236.43,3.310\n238.44,3.353\n240.45,3.385\n242.21,3.421\n243.72,3.461\n245.48,3.498\n246.98,3.532\n248.49,3.568\n249.75,3.602\n251.26,3.629\n252.76,3.658\n254.02,3.686\n255.70,3.709\n257.10,3.730\n259.05,3.750\n260.80,3.769\n262.56,3.787\n264.32,3.805\n266.33,3.816\n268.59,3.822\n270.85,3.825\n273.12,3.822\n274.87,3.808\n276.88,3.793\n278.64,3.775\n280.40,3.756\n281.66,3.729\n283.17,3.704\n284.42,3.674\n285.68,3.646\n286.93,3.616\n288.19,3.583\n289.45,3.548\n290.95,3.510\n292.46,3.474\n293.97,3.435\n295.48,3.392\n296.98,3.345\n298.99,3.301\n301.01,3.252\n303.27,3.220\n305.53,3.185\n307.79,3.160\n310.05,3.134\n312.31,3.120\n314.38,3.108\n316.83,3.091\n##END=\n'