b'##TITLE=Cyclobutane, methylene-\n##JCAMP-DX=4.24\n##DATA TYPE=UV/VIS SPECTRUM\n##ORIGIN=INSTITUTE OF ENERGY PROBLEMS OF CHEMICAL PHYSICS, RAS\n##OWNER=INEP CP RAS, NIST OSRD\nCollection (C) 2007 copyright by the U.S. Secretary of Commerce\non behalf of the United States of America. All rights reserved.\n##CAS REGISTRY NO=1120-56-5\n##MOLFORM=C5H8\n##MP=- 134.7\n##BP=41-42/ 739 mm\n##SOURCE REFERENCE=RAS UV No. 12964\n##$NIST SQUIB=1958LOE/PIC345\n##$NIST SOURCE=TYUGLMTE\n##SPECTROMETER/DATA SYSTEM=n.i.g.\n##XUNITS=Wavelength (nm)\n##YUNITS=Logarithm epsilon\n##XFACTOR=1.0\n##YFACTOR=1.0\n##FIRSTX=159.06\n##LASTX=215.46\n##FIRSTY=4.135\n##MAXX=215.46\n##MINX=159.06\n##MAXY=4.209\n##MINY=2.895\n##NPOINTS=88\n##$REF AUTHOR=Loeffler, B.; Pickett, L.\n##$REF JOURNAL=J. Chem. Phys.\n##$REF VOLUME=28\n##$REF PAGE=345\n##$REF DATE=1958\n##XYPOINTS=(XY..XY)\n159.06,4.135\n159.72,4.135\n160.24,4.166\n160.61,4.203\n161.28,4.209\n161.88,4.188\n162.57,4.193\n163.10,4.161\n163.80,4.156\n164.42,4.135\n165.12,4.150\n165.83,4.161\n166.55,4.161\n167.11,4.135\n167.59,4.103\n168.16,4.071\n168.65,4.039\n169.14,4.007\n169.81,3.992\n170.56,3.981\n171.23,3.954\n171.91,3.939\n172.51,3.912\n173.11,3.880\n173.63,3.843\n174.24,3.811\n174.86,3.785\n175.47,3.753\n176.10,3.727\n176.82,3.706\n177.63,3.690\n178.45,3.706\n179.10,3.737\n179.84,3.764\n180.40,3.796\n180.96,3.827\n181.72,3.843\n182.49,3.864\n183.26,3.886\n184.04,3.912\n184.82,3.939\n185.31,3.981\n186.01,4.007\n186.91,4.023\n187.72,4.044\n188.64,4.060\n189.57,4.071\n190.40,4.092\n191.24,4.119\n192.08,4.140\n193.05,4.145\n194.02,4.150\n195.00,4.145\n195.99,4.145\n196.99,4.150\n198.00,4.145\n199.02,4.145\n199.94,4.124\n200.75,4.097\n201.69,4.071\n202.63,4.044\n203.46,4.013\n204.30,3.986\n205.02,3.954\n205.63,3.917\n206.36,3.880\n206.98,3.843\n207.60,3.806\n208.22,3.764\n208.72,3.721\n209.35,3.679\n209.86,3.637\n210.24,3.589\n210.62,3.547\n211.01,3.504\n211.39,3.457\n211.91,3.414\n212.30,3.372\n212.69,3.324\n213.08,3.276\n213.47,3.229\n213.74,3.181\n214.00,3.133\n214.26,3.086\n214.53,3.038\n214.79,2.990\n215.19,2.943\n215.46,2.895\n##END=\n'