b'##TITLE=4-Nitropyridine\n##JCAMP-DX=4.24\n##DATA TYPE=UV/VIS SPECTRUM\n##ORIGIN=INSTITUTE OF ENERGY PROBLEMS OF CHEMICAL PHYSICS, RAS\n##OWNER=INEP CP RAS, NIST OSRD\nCollection (C) 2007 copyright by the U.S. Secretary of Commerce\non behalf of the United States of America. All rights reserved.\n##CAS REGISTRY NO=1122-61-8\n##MOLFORM=C5H4N2O2\n##MP=49-51\n##SOURCE REFERENCE=RAS UV No. 12086\n##$NIST SQUIB=1953GRU1020\n##$NIST SOURCE=TYUGLMTE\n##SPECTROMETER/DATA SYSTEM=n.i.g.\n##XUNITS=Wavelength (nm)\n##YUNITS=Logarithm epsilon\n##XFACTOR=1.0\n##YFACTOR=1.0\n##FIRSTX=241.29\n##LASTX=318.5\n##FIRSTY=3.715\n##MAXX=318.5\n##MINX=241.29\n##MAXY=3.715\n##MINY=2.623\n##NPOINTS=95\n##$REF AUTHOR=Gruber, W.\n##$REF JOURNAL=Can. J. Chem.\n##$REF VOLUME=31\n##$REF PAGE=1020\n##$REF DATE=1953\n##XYPOINTS=(XY..XY)\n241.29,3.715\n242.04,3.693\n242.79,3.679\n243.54,3.654\n244.29,3.637\n244.93,3.609\n245.47,3.589\n246.33,3.559\n246.97,3.542\n247.61,3.514\n248.15,3.492\n248.79,3.464\n249.33,3.444\n249.87,3.425\n250.51,3.405\n250.94,3.383\n251.58,3.352\n252.12,3.332\n252.87,3.307\n253.51,3.288\n254.05,3.268\n254.80,3.254\n255.55,3.237\n256.41,3.218\n257.27,3.207\n258.45,3.193\n259.41,3.184\n260.27,3.176\n261.23,3.173\n262.20,3.170\n263.16,3.170\n264.13,3.179\n265.09,3.184\n266.06,3.196\n266.92,3.204\n267.99,3.218\n268.74,3.232\n269.92,3.249\n270.78,3.260\n271.96,3.277\n272.82,3.285\n273.78,3.293\n274.64,3.307\n275.92,3.316\n276.78,3.327\n278.39,3.332\n279.36,3.338\n280.75,3.338\n281.72,3.344\n282.68,3.346\n283.65,3.344\n284.61,3.338\n285.58,3.335\n286.54,3.330\n287.51,3.324\n288.36,3.316\n289.22,3.304\n290.19,3.299\n291.15,3.291\n292.01,3.279\n292.98,3.271\n293.83,3.260\n294.91,3.240\n295.87,3.232\n296.73,3.207\n297.69,3.198\n298.34,3.182\n299.20,3.168\n299.95,3.154\n300.80,3.131\n301.66,3.117\n302.52,3.098\n303.27,3.084\n304.02,3.061\n304.77,3.045\n305.74,3.017\n306.49,3.003\n307.24,2.975\n308.10,2.961\n309.06,2.933\n309.71,2.913\n310.46,2.888\n311.21,2.874\n311.96,2.849\n312.60,2.830\n312.92,2.807\n313.78,2.796\n314.32,2.774\n314.85,2.749\n315.50,2.732\n316.14,2.704\n316.78,2.684\n317.32,2.659\n317.86,2.640\n318.50,2.623\n##END=\n'