b'##TITLE=Glutarimide\n##JCAMP-DX=4.24\n##DATA TYPE=UV/VIS SPECTRUM\n##ORIGIN=INSTITUTE OF ENERGY PROBLEMS OF CHEMICAL PHYSICS, RAS\n##OWNER=INEP CP RAS, NIST OSRD\nCollection (C) 2007 copyright by the U.S. Secretary of Commerce\non behalf of the United States of America. All rights reserved.\n##CAS REGISTRY NO=1121-89-7\n##MOLFORM=C5H7NO2\n##MP=155-157\n##SOURCE REFERENCE=RAS UV No. 12561\n##$NIST SQUIB=1957TUR/WHE4555\n##$NIST SOURCE=TYUGLMTE\n##SPECTROMETER/DATA SYSTEM=n.i.g.\n##XUNITS=Wavelength (nm)\n##YUNITS=Logarithm epsilon\n##XFACTOR=1.0\n##YFACTOR=1.0\n##FIRSTX=179.3\n##LASTX=206.61\n##FIRSTY=3.205\n##MAXX=206.61\n##MINX=179.3\n##MAXY=4.128\n##MINY=3.205\n##NPOINTS=99\n##$REF AUTHOR=Turner, D.W.; Wheeler, (Mrs) R.B.\n##$REF JOURNAL=J. Chem. Soc.\n##$REF PAGE=4555\n##$REF DATE=1957\n##XYPOINTS=(XY..XY)\n179.30,3.205\n179.55,3.226\n179.80,3.237\n180.05,3.251\n180.30,3.265\n180.55,3.284\n180.81,3.297\n181.06,3.314\n181.32,3.330\n181.57,3.350\n181.83,3.365\n182.08,3.383\n182.34,3.397\n182.60,3.414\n182.86,3.431\n183.09,3.444\n183.35,3.461\n183.62,3.476\n183.88,3.491\n184.13,3.507\n184.42,3.526\n184.69,3.543\n184.96,3.562\n185.22,3.576\n185.49,3.596\n185.76,3.611\n186.03,3.629\n186.30,3.645\n186.57,3.661\n186.84,3.675\n187.11,3.690\n187.38,3.704\n187.65,3.719\n187.93,3.735\n188.20,3.750\n188.48,3.764\n188.75,3.778\n189.03,3.797\n189.31,3.812\n189.59,3.825\n189.86,3.840\n190.15,3.856\n190.43,3.871\n190.71,3.882\n190.99,3.899\n191.27,3.914\n191.56,3.929\n191.84,3.941\n192.13,3.956\n192.42,3.970\n192.70,3.983\n192.99,3.997\n193.28,4.011\n193.57,4.030\n193.86,4.038\n194.16,4.053\n194.45,4.063\n194.74,4.077\n195.04,4.084\n195.33,4.092\n195.63,4.099\n195.93,4.104\n196.23,4.109\n196.53,4.113\n196.83,4.116\n197.13,4.119\n197.43,4.122\n197.73,4.125\n198.04,4.126\n198.34,4.128\n198.65,4.128\n198.95,4.128\n199.26,4.128\n199.57,4.125\n199.88,4.121\n200.19,4.116\n200.50,4.111\n200.81,4.106\n201.13,4.100\n201.44,4.093\n201.76,4.088\n202.07,4.080\n202.39,4.074\n202.71,4.068\n203.03,4.060\n203.35,4.051\n203.67,4.044\n203.99,4.035\n204.32,4.025\n204.64,4.014\n204.97,4.005\n205.29,3.992\n205.62,3.975\n205.95,3.960\n206.28,3.942\n206.36,3.929\n206.44,3.927\n206.53,3.926\n206.61,3.924\n##END=\n'