b'##TITLE=Pyridine-1-oxide, 4-nitro-\n##JCAMP-DX=4.24\n##DATA TYPE=UV/VIS SPECTRUM\n##ORIGIN=INSTITUTE OF ENERGY PROBLEMS OF CHEMICAL PHYSICS, RAS\n##OWNER=INEP CP RAS, NIST OSRD\nCollection (C) 2007 copyright by the U.S. Secretary of Commerce\non behalf of the United States of America. All rights reserved.\n##CAS REGISTRY NO=1124-33-0\n##MOLFORM=C5H4N2O3\n##MP=160.5\n##SOURCE REFERENCE=RAS UV No. 12087\n##$NIST SQUIB=1955JAF4451\n##$NIST SOURCE=TYUGLMTE\n##SPECTROMETER/DATA SYSTEM=Beckman DU\n##XUNITS=Wavelength (nm)\n##YUNITS=Logarithm epsilon\n##XFACTOR=1.0\n##YFACTOR=1.0\n##FIRSTX=200.79\n##LASTX=360.41\n##FIRSTY=3.548\n##MAXX=360.41\n##MINX=200.79\n##MAXY=3.996\n##MINY=2.983\n##NPOINTS=146\n##$REF AUTHOR=Jaffe, H.H.\n##$REF JOURNAL=J. Am. Chem. Soc.\n##$REF VOLUME=77\n##$REF PAGE=4451\n##$REF DATE=1955\n##XYPOINTS=(XY..XY)\n200.79,3.548\n200.99,3.549\n201.18,3.551\n201.38,3.551\n201.58,3.552\n201.77,3.553\n201.97,3.554\n202.17,3.554\n202.36,3.555\n202.56,3.556\n203.15,3.560\n204.34,3.570\n205.52,3.581\n206.70,3.593\n207.88,3.610\n209.06,3.633\n210.25,3.662\n211.43,3.688\n212.61,3.711\n213.79,3.732\n214.98,3.750\n216.16,3.767\n217.34,3.780\n218.52,3.792\n219.71,3.799\n220.89,3.800\n222.07,3.799\n223.25,3.795\n224.44,3.788\n225.62,3.779\n226.80,3.767\n227.98,3.744\n229.16,3.722\n230.35,3.691\n231.53,3.660\n232.71,3.615\n233.89,3.562\n235.08,3.503\n236.26,3.445\n237.44,3.404\n238.62,3.338\n239.81,3.275\n240.99,3.222\n242.17,3.170\n243.35,3.120\n244.54,3.075\n245.72,3.050\n246.90,3.023\n248.08,3.012\n249.26,2.999\n250.19,2.991\n250.71,2.987\n251.63,2.983\n252.38,2.987\n253.12,2.992\n253.99,2.999\n255.18,3.016\n256.36,3.035\n257.54,3.053\n258.72,3.081\n259.91,3.114\n261.09,3.147\n262.27,3.184\n263.45,3.215\n264.64,3.246\n265.82,3.273\n267.00,3.303\n268.18,3.330\n269.36,3.365\n270.55,3.394\n271.73,3.421\n272.91,3.451\n274.09,3.482\n275.28,3.513\n276.46,3.545\n277.64,3.571\n278.82,3.596\n280.01,3.622\n281.19,3.648\n282.37,3.677\n283.55,3.697\n284.74,3.718\n285.92,3.738\n287.10,3.759\n288.28,3.780\n289.46,3.799\n290.65,3.816\n291.83,3.833\n293.01,3.850\n294.19,3.866\n295.38,3.882\n296.56,3.895\n297.74,3.908\n298.92,3.922\n300.11,3.932\n301.29,3.941\n302.47,3.950\n303.65,3.958\n304.83,3.966\n306.02,3.974\n307.20,3.980\n308.38,3.985\n309.56,3.990\n310.75,3.992\n311.93,3.995\n313.11,3.996\n314.29,3.996\n315.48,3.995\n316.66,3.992\n317.84,3.988\n319.02,3.984\n320.21,3.980\n321.39,3.974\n322.57,3.968\n323.75,3.961\n324.93,3.953\n326.12,3.942\n327.30,3.931\n328.48,3.919\n329.66,3.904\n330.85,3.887\n332.03,3.869\n333.21,3.849\n334.39,3.832\n335.58,3.811\n336.76,3.791\n337.94,3.767\n339.12,3.745\n340.31,3.720\n341.49,3.695\n342.67,3.674\n343.85,3.653\n345.03,3.626\n346.22,3.598\n347.40,3.573\n348.58,3.545\n349.76,3.517\n350.95,3.485\n352.13,3.451\n353.31,3.420\n354.49,3.386\n355.68,3.353\n356.86,3.324\n358.04,3.292\n359.22,3.255\n360.41,3.220\n##END=\n'