b'##TITLE=Guanidine\n##JCAMP-DX=4.24\n##DATA TYPE=UV/VIS SPECTRUM\n##ORIGIN=INSTITUTE OF ENERGY PROBLEMS OF CHEMICAL PHYSICS, RAS\n##OWNER=INEP CP RAS, NIST OSRD\nCollection (C) 2007 copyright by the U.S. Secretary of Commerce\non behalf of the United States of America. All rights reserved.\n##CAS REGISTRY NO=113-00-8\n##MOLFORM=CH5N3\n##MP=50\n##SOURCE REFERENCE=RAS UV No. 10169\n##$NIST SQUIB=1947KLO/ASK801\n##$NIST SOURCE=TYUGLMTE\n##SPECTROMETER/DATA SYSTEM=Beckman quartz spectrophotometer\n##XUNITS=Wavelength (nm)\n##YUNITS=Logarithm epsilon\n##XFACTOR=1.0\n##YFACTOR=1.0\n##FIRSTX=221.26\n##LASTX=249.53\n##FIRSTY=2.967\n##MAXX=249.53\n##MINX=221.26\n##MAXY=2.967\n##MINY=2.415\n##NPOINTS=45\n##$REF AUTHOR=Klotz, I.M.; Askounts, T.\n##$REF JOURNAL=J. Am. Chem. Soc.\n##$REF VOLUME=69\n##$REF PAGE=801\n##$REF DATE=1947\n##XYPOINTS=(XY..XY)\n221.26,2.967\n221.89,2.961\n222.52,2.954\n223.15,2.946\n223.78,2.940\n224.41,2.934\n225.04,2.928\n225.67,2.920\n226.30,2.914\n226.93,2.905\n227.56,2.899\n228.19,2.890\n228.82,2.882\n229.45,2.875\n230.08,2.867\n230.71,2.860\n231.34,2.851\n231.97,2.841\n232.60,2.832\n233.23,2.826\n233.70,2.814\n234.33,2.804\n234.96,2.795\n235.59,2.786\n236.22,2.775\n237.48,2.753\n238.03,2.741\n238.58,2.728\n239.13,2.716\n239.76,2.703\n240.39,2.690\n241.02,2.676\n241.57,2.662\n242.20,2.647\n242.83,2.632\n243.39,2.616\n243.94,2.599\n245.20,2.565\n245.83,2.546\n246.46,2.527\n247.09,2.507\n247.72,2.485\n248.27,2.463\n248.90,2.440\n249.53,2.415\n##END=\n'