b'##TITLE=Mercury, chloromethyl-\n##JCAMP-DX=4.24\n##DATA TYPE=UV/VIS SPECTRUM\n##ORIGIN=INSTITUTE OF ENERGY PROBLEMS OF CHEMICAL PHYSICS, RAS\n##OWNER=INEP CP RAS, NIST OSRD\nCollection (C) 2007 copyright by the U.S. Secretary of Commerce\non behalf of the United States of America. All rights reserved.\n##CAS REGISTRY NO=115-09-3\n##MOLFORM=CH3ClHg\n##SOURCE REFERENCE=RAS UV No. 17446\n##$NIST SQUIB=1976ARA/MCD195\n##$NIST SOURCE=TYUGLMTE\n##SPECTROMETER/DATA SYSTEM=Cary 14\n##XUNITS=Wavelength (nm)\n##YUNITS=Logarithm epsilon\n##XFACTOR=1.0\n##YFACTOR=1.0\n##FIRSTX=211.5\n##LASTX=256.33\n##FIRSTY=3.519\n##MAXX=256.33\n##MINX=211.5\n##MAXY=3.519\n##MINY=1.771\n##NPOINTS=42\n##$REF AUTHOR=Arah, R.D.; McDuffie, B.\n##$REF JOURNAL=Anal. Chem.\n##$REF VOLUME=48\n##$REF PAGE=195\n##$REF DATE=1976\n##XYPOINTS=(XY..XY)\n211.50,3.519\n212.32,3.500\n213.14,3.484\n213.96,3.467\n214.92,3.449\n215.88,3.430\n216.97,3.414\n218.06,3.397\n219.16,3.380\n220.11,3.362\n221.21,3.343\n222.30,3.323\n223.39,3.302\n224.49,3.285\n225.58,3.262\n226.67,3.238\n227.77,3.218\n228.86,3.197\n229.95,3.180\n231.05,3.157\n232.14,3.132\n233.23,3.106\n234.33,3.079\n235.42,3.057\n236.51,3.026\n237.61,2.997\n238.84,2.966\n239.83,2.935\n241.03,2.896\n242.30,2.852\n243.54,2.804\n244.44,2.771\n245.54,2.725\n246.71,2.665\n247.86,2.594\n248.95,2.524\n250.18,2.440\n251.41,2.335\n252.64,2.248\n253.87,2.139\n255.10,1.992\n256.33,1.771\n##END=\n'