b'##TITLE=1-Propene, 2-methyl-\n##JCAMP-DX=4.24\n##DATA TYPE=UV/VIS SPECTRUM\n##ORIGIN=INSTITUTE OF ENERGY PROBLEMS OF CHEMICAL PHYSICS, RAS\n##OWNER=INEP CP RAS, NIST OSRD\nCollection (C) 2007 copyright by the U.S. Secretary of Commerce\non behalf of the United States of America. All rights reserved.\n##CAS REGISTRY NO=115-11-7\n##MOLFORM=C4H8\n##MP=-140.4\n##BP=-6.9\n##SOURCE REFERENCE=RAS UV No. 2469\n##$NIST SQUIB=1955JON/TAY228-237\n##$NIST SOURCE=TSGMTE\n##SPECTROMETER/DATA SYSTEM=Beckman DU\n##XUNITS=Wavelength (nm)\n##YUNITS=Logarithm epsilon\n##XFACTOR=1.000000\n##YFACTOR=1.000000\n##FIRSTX=170.0000\n##LASTX=199.0000\n##FIRSTY=3.58\n##MAXX=199\n##MINX=170\n##MAXY=4.1\n##MINY=3.27\n##NPOINTS=30\n##$REF AUTHOR=Jones, L.C., Jr.; Taylor, L.W.\n##$REF TITLE=Far ultraviolet absorption spectra of unsaturated and aromatic hydrocarbons\n##$REF JOURNAL=Anal. Chem.\n##$REF VOLUME=27\n##$REF NUMBER=2\n##$REF PAGE=228-237\n##$REF DATE=1955\n##XYPOINTS=(XY..XY)\n170.0000,3.580001\n171.0000,3.620000\n172.0000,3.570000\n173.0000,3.600000\n174.0000,3.750000\n175.0000,3.840000\n176.0000,3.800000\n177.0000,3.870000\n178.0000,3.990000\n179.0000,4.060000\n180.0000,4.060018\n181.0000,4.030000\n182.0000,4.030000\n183.0000,4.060000\n184.0000,4.070000\n185.0000,4.060000\n186.0000,4.060000\n187.0000,4.070000\n188.0000,4.100000\n189.0000,4.080000\n190.0000,3.979999\n191.0000,3.910000\n192.0000,3.850000\n193.0000,3.800000\n194.0000,3.730000\n195.0000,3.650000\n196.0000,3.560000\n197.0000,3.470000\n198.0000,3.360000\n199.0000,3.270000\n##END=\n'