b'##TITLE=p-Benzoquinone, 2,3,5,6-tetrachloro-\n##JCAMP-DX=4.24\n##DATA TYPE=UV/VIS SPECTRUM\n##ORIGIN=INSTITUTE OF ENERGY PROBLEMS OF CHEMICAL PHYSICS, RAS\n##OWNER=INEP CP RAS, NIST OSRD\nCollection (C) 2007 copyright by the U.S. Secretary of Commerce\non behalf of the United States of America. All rights reserved.\n##CAS REGISTRY NO=118-75-2\n##MOLFORM=C6Cl4O2\n##MP=292\n##SOURCE REFERENCE=RAS UV No. 19949\n##$NIST SQUIB=1966PER/BRAb8/5\n##$NIST SOURCE=TYUGLMTE\n##SPECTROMETER/DATA SYSTEM=Zeiss PMQ II\n##XUNITS=Wavelength (nm)\n##YUNITS=Logarithm epsilon\n##XFACTOR=1.0\n##YFACTOR=1.0\n##FIRSTX=202.96\n##LASTX=451.74\n##FIRSTY=4.016\n##MAXX=451.74\n##MINX=202.96\n##MAXY=4.145\n##MINY=1.187\n##NPOINTS=257\n##$REF AUTHOR=Perkampus, H.-H.; Braunschweig, T.H.\n##$REF JOURNAL=UV atlas of organic compouds\n##$REF VOLUME=1\n##$REF PAGE=B8/5\n##$REF DATE=1966\n##XYPOINTS=(XY..XY)\n202.96,4.016\n203.05,4.021\n203.13,4.023\n203.22,4.025\n203.31,4.027\n203.40,4.031\n203.85,4.053\n204.30,4.066\n204.75,4.076\n205.20,4.087\n205.65,4.093\n206.11,4.098\n206.57,4.098\n207.03,4.096\n207.49,4.089\n207.96,4.085\n208.42,4.078\n208.89,4.068\n209.36,4.063\n209.84,4.055\n210.31,4.044\n210.79,4.036\n211.27,4.025\n211.75,4.014\n212.23,4.003\n212.72,3.991\n213.21,3.978\n213.70,3.965\n214.19,3.952\n214.69,3.935\n215.18,3.922\n215.68,3.903\n216.19,3.881\n216.69,3.862\n217.20,3.843\n217.71,3.821\n218.22,3.798\n218.73,3.776\n219.25,3.748\n219.77,3.725\n220.29,3.703\n220.81,3.673\n221.34,3.654\n221.87,3.633\n222.40,3.615\n222.93,3.603\n223.47,3.590\n224.01,3.566\n224.55,3.547\n225.09,3.525\n225.64,3.506\n226.19,3.485\n226.74,3.468\n227.30,3.450\n227.85,3.431\n228.42,3.414\n228.98,3.401\n229.54,3.388\n230.11,3.378\n230.68,3.360\n231.26,3.350\n231.84,3.339\n232.42,3.328\n233.00,3.320\n233.59,3.313\n234.17,3.309\n234.77,3.307\n235.36,3.305\n235.96,3.305\n236.56,3.303\n237.16,3.309\n237.77,3.315\n238.38,3.320\n239.00,3.326\n239.61,3.330\n240.23,3.339\n240.86,3.345\n241.48,3.354\n242.11,3.363\n242.74,3.373\n243.38,3.384\n244.02,3.393\n244.66,3.403\n245.31,3.414\n245.96,3.425\n246.61,3.438\n247.27,3.453\n247.93,3.465\n248.59,3.476\n249.26,3.489\n249.93,3.504\n250.60,3.519\n251.28,3.530\n251.96,3.543\n252.65,3.558\n253.34,3.568\n254.03,3.581\n254.73,3.592\n255.43,3.603\n256.13,3.613\n256.84,3.626\n257.55,3.639\n258.27,3.654\n258.99,3.667\n259.72,3.684\n260.44,3.697\n261.18,3.710\n261.91,3.727\n262.65,3.740\n263.40,3.757\n264.15,3.770\n264.90,3.789\n265.66,3.802\n266.42,3.819\n267.19,3.836\n267.96,3.851\n268.73,3.868\n269.51,3.883\n270.30,3.903\n271.09,3.918\n271.88,3.935\n272.68,3.954\n273.48,3.969\n274.29,3.988\n275.10,4.006\n275.92,4.023\n276.74,4.038\n277.57,4.053\n278.40,4.061\n279.24,4.072\n280.08,4.081\n280.93,4.089\n281.78,4.096\n282.64,4.104\n283.50,4.115\n284.37,4.123\n285.24,4.134\n286.12,4.138\n287.00,4.143\n287.89,4.145\n288.79,4.143\n289.69,4.136\n290.60,4.126\n291.51,4.106\n292.43,4.085\n293.35,4.061\n294.28,4.031\n295.22,3.999\n296.16,3.967\n297.10,3.926\n298.06,3.883\n299.02,3.834\n299.98,3.785\n300.96,3.735\n301.93,3.678\n302.92,3.637\n303.91,3.581\n304.91,3.523\n305.91,3.472\n306.92,3.418\n307.94,3.363\n308.97,3.305\n310.00,3.253\n311.04,3.202\n312.08,3.150\n313.13,3.110\n314.19,3.064\n315.25,3.011\n316.40,2.960\n317.44,2.922\n318.50,2.878\n319.60,2.837\n320.70,2.795\n321.81,2.752\n322.93,2.707\n324.06,2.666\n325.19,2.632\n326.34,2.604\n327.49,2.580\n328.65,2.552\n329.81,2.529\n330.99,2.510\n332.17,2.488\n333.37,2.473\n334.57,2.458\n335.78,2.441\n336.99,2.430\n338.22,2.426\n339.46,2.417\n340.70,2.413\n341.96,2.409\n343.22,2.411\n344.49,2.413\n345.78,2.415\n347.07,2.420\n348.37,2.426\n349.68,2.430\n351.00,2.437\n352.34,2.439\n353.68,2.441\n355.03,2.447\n356.39,2.447\n357.77,2.450\n359.15,2.450\n360.54,2.450\n361.95,2.450\n363.36,2.450\n364.79,2.450\n366.23,2.447\n367.68,2.443\n369.14,2.439\n370.62,2.437\n372.10,2.428\n373.60,2.422\n375.11,2.417\n376.63,2.409\n378.16,2.398\n379.71,2.390\n381.27,2.379\n382.84,2.370\n384.42,2.357\n386.02,2.347\n387.63,2.334\n389.26,2.317\n390.89,2.297\n392.55,2.282\n394.21,2.263\n395.89,2.242\n397.59,2.216\n399.30,2.190\n401.02,2.160\n402.76,2.134\n404.52,2.104\n406.29,2.074\n408.07,2.051\n409.87,2.021\n411.69,1.987\n413.52,1.948\n415.37,1.912\n417.24,1.875\n419.12,1.837\n421.02,1.802\n422.94,1.764\n424.87,1.727\n426.83,1.689\n428.80,1.648\n430.79,1.607\n432.79,1.562\n434.82,1.524\n436.86,1.481\n438.93,1.432\n441.01,1.386\n443.12,1.335\n445.24,1.292\n447.39,1.254\n449.55,1.219\n451.74,1.187\n##END=\n'