b'##TITLE=Pyrimidine, 4,6-dichloro-\n##JCAMP-DX=4.24\n##DATA TYPE=UV/VIS SPECTRUM\n##ORIGIN=INSTITUTE OF ENERGY PROBLEMS OF CHEMICAL PHYSICS, RAS\n##OWNER=INEP CP RAS, NIST OSRD\nCollection (C) 2007 copyright by the U.S. Secretary of Commerce\non behalf of the United States of America. All rights reserved.\n##CAS REGISTRY NO=1193-21-1\n##MOLFORM=C4H2Cl2N2\n##MP=69-70\n##SOURCE REFERENCE=RAS UV No. 18930\n##$NIST SQUIB=1975KOP148\n##$NIST SOURCE=TYUGLMTE\n##SPECTROMETER/DATA SYSTEM=SF-16\n##XUNITS=Wavelength (nm)\n##YUNITS=Logarithm epsilon\n##XFACTOR=1.0\n##YFACTOR=1.0\n##FIRSTX=203.42\n##LASTX=273.69\n##FIRSTY=3.886\n##MAXX=273.69\n##MINX=203.42\n##MAXY=3.886\n##MINY=2.529\n##NPOINTS=47\n##$REF AUTHOR=(editor), Koptyug V.A.\n##$REF JOURNAL=Atlas of Spectra of Aromatic and Heterocyclic Compounds\n##$REF VOLUME=8\n##$REF PAGE=148\n##$REF DATE=1975\n##XYPOINTS=(XY..XY)\n203.42,3.886\n206.34,3.848\n207.81,3.820\n209.27,3.782\n210.74,3.725\n212.20,3.677\n213.66,3.625\n215.13,3.564\n216.59,3.502\n218.06,3.412\n219.52,3.326\n220.98,3.236\n222.45,3.170\n223.91,3.065\n225.38,2.989\n226.84,2.952\n228.30,2.928\n229.77,2.918\n231.23,2.933\n232.70,2.980\n235.62,3.070\n237.09,3.146\n238.55,3.217\n240.02,3.288\n241.48,3.326\n242.94,3.388\n244.41,3.435\n245.87,3.478\n247.34,3.511\n248.80,3.540\n250.26,3.559\n251.73,3.573\n253.19,3.592\n254.66,3.592\n256.12,3.568\n257.58,3.530\n259.05,3.492\n260.51,3.440\n261.98,3.322\n263.44,3.217\n264.90,3.094\n266.37,2.980\n267.83,2.909\n269.30,2.757\n270.76,2.672\n272.22,2.596\n273.69,2.529\n##END=\n'