b'##TITLE=6-hydroxy-4(1H)-pyrimidinone\n##JCAMP-DX=4.24\n##DATA TYPE=UV/VIS SPECTRUM\n##ORIGIN=INSTITUTE OF ENERGY PROBLEMS OF CHEMICAL PHYSICS, RAS\n##OWNER=INEP CP RAS, NIST OSRD\nCollection (C) 2007 copyright by the U.S. Secretary of Commerce\non behalf of the United States of America. All rights reserved.\n##CAS REGISTRY NO=1193-24-4\n##MOLFORM=C4H4N2O2\n##MP=230\n##SOURCE REFERENCE=RAS UV No. 22203\n##$NIST SQUIB=1985MIK/378\n##$NIST SOURCE=TYUGLMTE\n##SPECTROMETER/DATA SYSTEM=Specord UV-Vis\n##XUNITS=Wavelength (nm)\n##YUNITS=Logarithm epsilon\n##XFACTOR=1.0\n##YFACTOR=1.0\n##FIRSTX=213.185\n##LASTX=296.911\n##FIRSTY=3.509\n##MAXX=296.911\n##MINX=213.185\n##MAXY=3.61\n##MINY=3.07\n##NPOINTS=108\n##$REF AUTHOR=Mikhaleva, M.A.; et al.\n##$REF JOURNAL=Khim. Geterosikl. Soedin.\n##$REF PAGE=378\n##$REF DATE=1985\n##XYPOINTS=(XY..XY)\n213.185,3.509\n213.297,3.509\n214.097,3.508\n214.897,3.506\n215.697,3.504\n216.497,3.501\n217.297,3.500\n218.097,3.499\n218.897,3.500\n219.697,3.501\n220.497,3.503\n221.297,3.506\n222.097,3.509\n222.897,3.512\n223.697,3.515\n224.497,3.517\n225.297,3.518\n226.065,3.519\n226.865,3.519\n227.665,3.522\n228.465,3.527\n229.265,3.532\n230.065,3.538\n230.865,3.543\n231.665,3.548\n232.465,3.553\n233.265,3.558\n234.065,3.562\n234.865,3.567\n235.665,3.572\n236.347,3.577\n237.147,3.587\n237.947,3.596\n238.747,3.603\n239.547,3.605\n240.347,3.603\n241.147,3.598\n241.947,3.592\n242.747,3.587\n242.901,3.586\n243.701,3.582\n244.501,3.578\n245.301,3.573\n246.101,3.569\n246.901,3.565\n247.701,3.562\n248.501,3.560\n249.301,3.558\n250.101,3.557\n250.901,3.558\n251.701,3.559\n252.501,3.561\n253.301,3.565\n254.101,3.569\n254.866,3.573\n255.666,3.578\n256.466,3.581\n257.266,3.584\n258.066,3.587\n258.866,3.590\n259.666,3.593\n260.466,3.597\n261.266,3.600\n262.066,3.603\n262.866,3.606\n263.666,3.608\n264.466,3.610\n265.266,3.610\n266.066,3.610\n266.866,3.609\n267.666,3.606\n268.466,3.602\n269.266,3.597\n270.066,3.591\n270.866,3.584\n271.666,3.577\n272.501,3.566\n273.301,3.556\n274.101,3.546\n274.901,3.536\n275.701,3.527\n276.501,3.519\n277.301,3.511\n278.101,3.504\n278.901,3.498\n279.701,3.493\n280.501,3.488\n281.298,3.484\n282.098,3.478\n282.898,3.475\n283.698,3.473\n284.498,3.468\n285.298,3.459\n286.098,3.448\n286.733,3.440\n287.634,3.430\n288.434,3.419\n289.234,3.407\n290.034,3.393\n290.834,3.376\n291.634,3.355\n292.434,3.329\n293.234,3.299\n294.034,3.262\n294.834,3.219\n295.634,3.168\n296.434,3.109\n296.911,3.070\n##END=\n'