b'##TITLE=Cyclobutanone\n##JCAMP-DX=4.24\n##DATA TYPE=UV/VIS SPECTRUM\n##ORIGIN=INSTITUTE OF ENERGY PROBLEMS OF CHEMICAL PHYSICS, RAS\n##OWNER=INEP CP RAS, NIST OSRD\nCollection (C) 2007 copyright by the U.S. Secretary of Commerce\non behalf of the United States of America. All rights reserved.\n##CAS REGISTRY NO=1191-95-3\n##MOLFORM=C4H6O\n##MP=-50.9\n##BP=99\n##SOURCE REFERENCE=RAS UV No. 1408\n##$NIST SQUIB=1973HEM/682\n##$NIST SOURCE=TSGMTE\n##SPECTROMETER/DATA SYSTEM=Cary 14R\n##XUNITS=Wavelength (nm)\n##YUNITS=Logarithm epsilon\n##XFACTOR=1.000000\n##YFACTOR=1.000000\n##FIRSTX=240.4959\n##LASTX=328.3069\n##FIRSTY=0.560588\n##MAXX=328.307\n##MINX=240.496\n##MAXY=1.24868\n##MINY=-0.262092\n##NPOINTS=254\n##$REF AUTHOR=Hemminger, J.C.; et al.\n##$REF JOURNAL=J. Am. Chem. Soc.\n##$REF VOLUME=95\n##$REF PAGE=682\n##$REF DATE=1973\n##XYPOINTS=(XY..XY)\n240.4959,0.560588\n241.3084,0.572639\n242.3683,0.593607\n244.2852,0.628787\n244.2852,0.628787\n244.7543,0.640143\n245.4181,0.653415\n246.2077,0.671015\n246.2077,0.671015\n246.6584,0.678455\n247.1981,0.690054\n247.6487,0.697177\n247.6487,0.697177\n248.7079,0.724612\n249.4897,0.742159\n250.1396,0.758518\n250.1396,0.758518\n250.4811,0.763293\n250.8974,0.772314\n251.5163,0.784767\n251.5163,0.784767\n252.2656,0.803150\n252.9158,0.818140\n253.5652,0.832656\n254.3117,0.849217\n255.2535,0.869965\n256.4885,0.896526\n256.4885,0.896526\n258.2246,0.936338\n259.1941,0.957727\n259.7106,0.968772\n260.0875,0.975694\n260.0875,0.975694\n261.7356,1.010113\n262.9362,1.033902\n263.7764,1.050109\n264.3433,1.060970\n264.7241,1.068293\n265.0058,1.073652\n265.2758,1.078518\n265.2758,1.078518\n265.5519,1.082347\n265.7657,1.086207\n266.0418,1.089972\n266.0418,1.089972\n266.7869,1.105769\n267.4713,1.118361\n268.6818,1.138284\n268.6818,1.138284\n268.9533,1.141986\n269.2321,1.145653\n269.5146,1.149293\n269.5146,1.149293\n269.5330,1.150913\n269.5551,1.152527\n269.5845,1.154132\n269.5845,1.154132\n270.1841,1.161829\n270.7838,1.169389\n271.3834,1.176820\n271.3834,1.176820\n272.2183,1.179532\n272.6635,1.180513\n272.6878,1.179710\n272.7708,1.179701\n272.8575,1.179690\n272.9515,1.179681\n273.1006,1.180610\n273.1006,1.180610\n273.5520,1.176138\n274.1523,1.170012\n275.1933,1.161029\n275.1933,1.161029\n275.4898,1.160790\n275.7862,1.160505\n276.0825,1.160132\n276.0825,1.160132\n276.6332,1.168318\n276.9062,1.172851\n277.1356,1.177678\n277.1356,1.177678\n277.2737,1.184893\n277.4119,1.192068\n277.5502,1.199168\n277.5502,1.199168\n277.6388,1.200613\n277.7347,1.202090\n277.8344,1.203642\n277.8344,1.203642\n278.0487,1.203620\n278.1811,1.203604\n278.1989,1.205042\n278.3172,1.203590\n278.4606,1.203574\n278.5670,1.206475\n278.9426,1.207982\n278.9426,1.207982\n279.0846,1.218843\n279.2267,1.229474\n279.3689,1.239925\n279.3689,1.239925\n279.5745,1.242862\n279.7169,1.241865\n279.7874,1.245782\n279.9302,1.241564\n280.0012,1.245922\n280.0040,1.248679\n280.0490,1.244989\n280.0933,1.244126\n280.1303,1.243299\n280.1400,1.241335\n280.3424,1.241145\n280.3424,1.241145\n280.4527,1.236056\n280.5631,1.230980\n280.6735,1.225883\n280.6735,1.225883\n280.9820,1.219815\n281.2642,1.213002\n281.5297,1.207704\n281.5297,1.207704\n281.6576,1.203506\n281.8401,1.198778\n282.0097,1.191915\n282.0097,1.191915\n282.1234,1.190802\n282.2336,1.189729\n282.3364,1.188737\n282.3364,1.188737\n282.3823,1.185378\n282.4245,1.181995\n282.4594,1.178586\n282.4594,1.178586\n282.6744,1.175978\n282.8847,1.172071\n283.2704,1.163415\n283.2704,1.163415\n283.8895,1.155600\n284.5050,1.147645\n285.1132,1.139539\n285.1132,1.139539\n285.5020,1.137199\n285.8834,1.134846\n286.2612,1.132481\n286.2612,1.132481\n286.5862,1.132797\n286.9037,1.133024\n287.2176,1.133200\n287.2176,1.133200\n287.5200,1.135934\n287.7016,1.138618\n287.9179,1.143530\n287.9179,1.143530\n288.0944,1.158676\n288.2673,1.173268\n288.4327,1.187306\n288.4327,1.187306\n288.5667,1.189704\n288.6171,1.190861\n288.6677,1.192099\n288.7183,1.193375\n289.2393,1.186247\n289.7991,1.185658\n289.8368,1.184879\n290.0953,1.187289\n290.2374,1.188478\n290.3470,1.190245\n290.5551,1.183324\n290.5551,1.183324\n290.8738,1.169889\n291.1383,1.159483\n291.4909,1.146940\n292.0739,1.126414\n292.0739,1.126414\n292.7940,1.108118\n293.2872,1.095891\n293.7814,1.084773\n294.5046,1.069154\n294.5046,1.069154\n295.2345,1.056665\n295.8227,1.046831\n296.5795,1.034661\n299.6466,0.989414\n299.6466,0.989414\n300.0428,0.986328\n300.6165,0.979603\n301.2855,0.972957\n301.2855,0.972957\n301.7865,0.965987\n302.2735,0.960095\n302.6436,0.954638\n302.6436,0.954638\n303.5404,0.946629\n304.4800,0.936106\n305.1017,0.926893\n305.1017,0.926893\n305.6690,0.920019\n306.1777,0.912812\n306.6582,0.907852\n306.6582,0.907852\n307.7435,0.886812\n308.4793,0.871053\n309.2021,0.853193\n310.2485,0.824458\n310.2485,0.824458\n311.0491,0.793427\n311.5961,0.768498\n312.1429,0.741270\n312.9428,0.700833\n312.9428,0.700833\n314.3997,0.630357\n315.2026,0.587273\n315.6368,0.565222\n315.9880,0.551182\n315.9880,0.551182\n316.1951,0.536950\n316.4971,0.520837\n316.8023,0.501319\n316.8023,0.501319\n317.9264,0.446755\n318.4736,0.421242\n318.9128,0.407629\n318.9128,0.407629\n319.0259,0.396234\n319.1354,0.384801\n319.2376,0.373611\n319.2376,0.373611\n319.4674,0.366460\n319.6972,0.359760\n319.9271,0.353224\n319.9271,0.353224\n320.2827,0.327400\n320.9013,0.293296\n321.4973,0.250591\n321.4973,0.250591\n322.1088,0.225645\n322.8762,0.181300\n324.2196,0.096423\n324.2196,0.096423\n324.3125,0.079904\n324.3980,0.062770\n324.4798,0.044932\n324.4798,0.044932\n324.8765,0.033745\n325.4260,0.006594\n326.5994,-0.067374\n326.5994,-0.067374\n326.8851,-0.105241\n327.4008,-0.163676\n327.8283,-0.240861\n328.0913,-0.262092\n328.1582,-0.250496\n328.2289,-0.236872\n328.3069,-0.222718\n##END=\n'