b'##TITLE=9H-Purine\n##JCAMP-DX=4.24\n##DATA TYPE=UV/VIS SPECTRUM\n##ORIGIN=INSTITUTE OF ENERGY PROBLEMS OF CHEMICAL PHYSICS, RAS\n##OWNER=INEP CP RAS, NIST OSRD\nCollection (C) 2007 copyright by the U.S. Secretary of Commerce\non behalf of the United States of America. All rights reserved.\n##CAS REGISTRY NO=120-73-0\n##MOLFORM=C5H4N4\n##MP=216-217\n##SOURCE REFERENCE=RAS UV No. 19898\n##$NIST SQUIB=1968PER/BRAh3/1\n##$NIST SOURCE=TYUGLMTE\n##SPECTROMETER/DATA SYSTEM=Zeiss PMQ II\n##XUNITS=Wavelength (nm)\n##YUNITS=Logarithm epsilon\n##XFACTOR=1.0\n##YFACTOR=1.0\n##FIRSTX=192.3\n##LASTX=308.03\n##FIRSTY=4.392\n##MAXX=308.03\n##MINX=192.3\n##MAXY=4.392\n##MINY=1.877\n##NPOINTS=170\n##$REF AUTHOR=Perkampus, H.-H.; Braunschweig, T.H.\n##$REF JOURNAL=UV atlas of organic compounds\n##$REF VOLUME=4\n##$REF PAGE=H3/1\n##$REF DATE=1968\n##XYPOINTS=(XY..XY)\n192.30,4.392\n192.38,4.389\n192.46,4.389\n192.54,4.389\n192.62,4.389\n192.70,4.389\n192.78,4.387\n192.86,4.387\n192.94,4.387\n193.02,4.387\n193.10,4.387\n193.18,4.385\n193.26,4.385\n193.34,4.385\n193.42,4.385\n193.50,4.385\n193.58,4.383\n193.66,4.383\n193.74,4.383\n193.82,4.383\n193.90,4.381\n194.22,4.375\n194.71,4.370\n195.20,4.364\n195.69,4.362\n196.18,4.355\n196.68,4.349\n197.18,4.345\n197.68,4.340\n198.18,4.340\n198.69,4.338\n199.20,4.332\n199.71,4.330\n200.22,4.323\n200.74,4.319\n201.26,4.311\n201.78,4.302\n202.30,4.292\n202.83,4.279\n203.36,4.264\n203.89,4.245\n204.43,4.226\n204.97,4.202\n205.51,4.175\n206.05,4.147\n206.60,4.115\n207.15,4.079\n207.71,4.038\n208.26,3.998\n208.82,3.953\n209.38,3.894\n209.95,3.847\n210.52,3.789\n211.09,3.764\n211.66,3.721\n212.24,3.681\n212.82,3.645\n213.40,3.611\n213.99,3.579\n214.58,3.549\n215.17,3.521\n215.77,3.504\n216.37,3.485\n216.97,3.466\n217.58,3.451\n218.19,3.434\n218.80,3.415\n219.42,3.402\n220.04,3.389\n220.66,3.372\n221.29,3.360\n221.92,3.343\n222.56,3.332\n223.20,3.315\n223.84,3.304\n224.48,3.298\n225.13,3.292\n225.79,3.289\n226.44,3.279\n227.11,3.281\n227.77,3.281\n228.44,3.283\n229.11,3.289\n229.79,3.294\n230.47,3.300\n231.15,3.309\n231.84,3.317\n232.54,3.328\n233.23,3.341\n233.93,3.349\n234.64,3.362\n235.35,3.372\n236.06,3.387\n236.78,3.400\n237.50,3.411\n238.23,3.423\n238.96,3.438\n239.70,3.449\n240.44,3.462\n241.19,3.472\n241.94,3.485\n242.69,3.498\n243.45,3.509\n244.21,3.521\n244.98,3.532\n245.76,3.543\n246.54,3.555\n247.32,3.566\n248.11,3.581\n248.90,3.594\n249.70,3.604\n250.50,3.619\n251.31,3.636\n252.13,3.655\n252.95,3.675\n253.77,3.694\n254.60,3.713\n255.44,3.734\n256.28,3.755\n257.13,3.777\n257.98,3.798\n258.84,3.813\n259.70,3.830\n260.57,3.840\n261.45,3.851\n262.33,3.860\n263.22,3.862\n264.11,3.868\n265.01,3.864\n265.92,3.858\n266.83,3.849\n267.75,3.838\n268.67,3.823\n269.60,3.798\n270.54,3.775\n271.48,3.734\n272.43,3.694\n273.39,3.643\n274.35,3.589\n275.33,3.538\n276.30,3.487\n277.29,3.421\n278.28,3.364\n279.28,3.285\n280.28,3.196\n281.30,3.117\n282.32,3.030\n283.35,2.966\n284.38,2.904\n285.43,2.853\n286.48,2.798\n287.42,2.754\n288.60,2.721\n289.68,2.689\n290.76,2.643\n291.85,2.596\n292.95,2.549\n294.06,2.509\n295.17,2.468\n296.30,2.409\n297.43,2.351\n298.57,2.292\n299.72,2.238\n300.88,2.194\n302.05,2.155\n303.22,2.107\n304.41,2.051\n305.61,1.981\n306.81,1.921\n308.03,1.877\n##END=\n'