b'##TITLE=2,4,5-Trioxoimidazolidine\n##JCAMP-DX=4.24\n##DATA TYPE=UV/VIS SPECTRUM\n##ORIGIN=INSTITUTE OF ENERGY PROBLEMS OF CHEMICAL PHYSICS, RAS\n##OWNER=INEP CP RAS, NIST OSRD\nCollection (C) 2007 copyright by the U.S. Secretary of Commerce\non behalf of the United States of America. All rights reserved.\n##CAS REGISTRY NO=120-89-8\n##MOLFORM=C3H2N2O3\n##MP=238 dec.\n##SOURCE REFERENCE=RAS UV No. 19960\n##$NIST SQUIB=1966JOHb11/6\n##$NIST SOURCE=TYUGLMTE\n##SPECTROMETER/DATA SYSTEM=Unicam SP 500\n##XUNITS=Wavelength (nm)\n##YUNITS=Logarithm epsilon\n##XFACTOR=1.0\n##YFACTOR=1.0\n##FIRSTX=192.47\n##LASTX=328.01\n##FIRSTY=3.624\n##MAXX=328.01\n##MINX=192.47\n##MAXY=4.138\n##MINY=1.223\n##NPOINTS=173\n##$REF AUTHOR=Johnson, E.A.\n##$REF JOURNAL=UV atlas of organic compounds\n##$REF VOLUME=1\n##$REF PAGE=B11/6\n##$REF DATE=1966\n##XYPOINTS=(XY..XY)\n192.47,3.624\n192.55,3.626\n192.62,3.628\n192.70,3.630\n192.78,3.632\n192.86,3.635\n192.94,3.637\n193.42,3.665\n193.91,3.688\n194.39,3.716\n194.88,3.740\n195.37,3.761\n195.86,3.785\n196.35,3.810\n196.85,3.832\n197.35,3.851\n197.85,3.872\n198.36,3.892\n198.86,3.913\n199.37,3.930\n199.88,3.950\n200.40,3.967\n200.92,3.980\n201.44,3.997\n201.96,4.010\n202.49,4.027\n203.02,4.038\n203.55,4.050\n204.08,4.061\n204.62,4.072\n205.16,4.080\n205.70,4.091\n206.24,4.098\n206.79,4.104\n207.34,4.113\n207.90,4.117\n208.46,4.123\n209.02,4.128\n209.58,4.132\n210.15,4.134\n210.71,4.136\n211.29,4.138\n211.86,4.138\n212.44,4.136\n213.02,4.134\n213.61,4.132\n214.20,4.125\n214.79,4.121\n215.38,4.113\n215.98,4.104\n216.58,4.093\n217.19,4.085\n217.80,4.072\n218.41,4.061\n219.02,4.048\n219.64,4.033\n220.26,4.018\n220.89,3.999\n221.52,3.984\n222.15,3.965\n222.79,3.941\n223.43,3.922\n224.07,3.898\n224.72,3.875\n225.37,3.851\n226.02,3.825\n226.68,3.800\n227.34,3.772\n228.01,3.744\n228.68,3.716\n229.35,3.686\n230.03,3.656\n230.72,3.624\n231.40,3.592\n232.09,3.562\n232.79,3.529\n233.49,3.499\n234.19,3.467\n234.90,3.437\n235.61,3.407\n236.32,3.384\n237.04,3.362\n237.77,3.343\n238.50,3.324\n239.23,3.307\n239.97,3.292\n240.71,3.279\n241.46,3.264\n242.21,3.253\n242.97,3.242\n243.73,3.232\n244.49,3.221\n245.27,3.210\n246.04,3.199\n246.82,3.191\n247.61,3.180\n248.40,3.174\n249.19,3.167\n250.00,3.156\n250.80,3.146\n251.61,3.137\n252.43,3.126\n253.25,3.114\n254.08,3.096\n254.91,3.084\n255.75,3.064\n256.59,3.043\n257.44,3.021\n258.30,2.994\n259.16,2.966\n260.02,2.940\n260.90,2.912\n261.77,2.880\n262.66,2.850\n263.55,2.818\n264.44,2.779\n265.35,2.745\n266.26,2.704\n267.17,2.666\n268.09,2.623\n269.02,2.582\n269.95,2.539\n270.89,2.496\n271.84,2.449\n272.79,2.398\n273.75,2.346\n274.72,2.293\n275.69,2.239\n276.63,2.194\n277.64,2.145\n278.64,2.097\n279.66,2.057\n280.60,2.017\n281.66,1.971\n282.71,1.924\n283.74,1.883\n284.78,1.849\n285.82,1.815\n286.88,1.791\n287.94,1.767\n289.01,1.750\n290.09,1.735\n291.17,1.725\n292.27,1.727\n293.37,1.733\n294.48,1.737\n295.60,1.746\n296.73,1.748\n297.86,1.748\n299.01,1.759\n300.16,1.767\n301.33,1.770\n302.50,1.776\n303.68,1.778\n304.87,1.780\n306.07,1.778\n307.28,1.776\n308.50,1.767\n309.72,1.755\n310.96,1.737\n312.21,1.718\n313.47,1.695\n314.74,1.667\n316.02,1.639\n317.31,1.609\n318.60,1.572\n319.92,1.536\n321.20,1.496\n322.56,1.448\n323.91,1.403\n324.92,1.359\n326.17,1.305\n328.01,1.223\n##END=\n'