b"##TITLE=Cyclopentanone\n##JCAMP-DX=4.24\n##DATA TYPE=UV/VIS SPECTRUM\n##ORIGIN=INSTITUTE OF ENERGY PROBLEMS OF CHEMICAL PHYSICS, RAS\n##OWNER=INEP CP RAS, NIST OSRD\nCollection (C) 2007 copyright by the U.S. Secretary of Commerce\non behalf of the United States of America. All rights reserved.\n##CAS REGISTRY NO=120-92-3\n##MOLFORM=C5H8O\n##MP=-51.3\n##BP=130.5\n##SOURCE REFERENCE=RAS UV No. 49\n##$NIST SQUIB=1950RAM/GRU317-322\n##$NIST SOURCE=TSGMTE\n##SPECTROMETER/DATA SYSTEM=n.i.g.\n##XUNITS=Wavelength (nm)\n##YUNITS=Logarithm epsilon\n##XFACTOR=1.000000\n##YFACTOR=1.000000\n##FIRSTX=330.9506\n##LASTX=225.8589\n##FIRSTY=0.042418\n##MAXX=330.951\n##MINX=225.859\n##MAXY=1.31756\n##MINY=0.042418\n##NPOINTS=289\n##$REF AUTHOR=Rambart-Lucas, M.; Grumes, M.\n##$REF TITLE=Sur la deformation des orbites electroniques du carbone et de l'azote dans les combinaisons heterocycliques\n##$REF JOURNAL=Bull. Soc. Chim. Fr.\n##$REF VOLUME=17\n##$REF PAGE=317-322\n##$REF DATE=1950\n##XYPOINTS=(XY..XY)\n330.9506,0.042418\n330.5204,0.072801\n330.1113,0.099439\n329.7335,0.124960\n329.3965,0.151921\n329.3965,0.151921\n329.2213,0.155306\n329.0386,0.158724\n328.8406,0.162116\n328.8406,0.162116\n328.6673,0.182186\n328.4942,0.202461\n328.3212,0.222846\n327.5968,0.323912\n327.5968,0.323912\n327.5968,0.300443\n327.5968,0.276760\n327.5968,0.252974\n327.4008,0.327706\n327.2100,0.337479\n326.9388,0.360518\n326.5022,0.404098\n325.8166,0.475511\n325.8166,0.475511\n325.3632,0.504294\n324.8434,0.553155\n324.3928,0.581927\n324.3928,0.581927\n323.9675,0.631839\n323.6058,0.671811\n323.2952,0.703867\n323.0231,0.729999\n322.7774,0.752233\n322.5458,0.772571\n322.3161,0.793036\n322.0764,0.815624\n321.8146,0.842360\n321.8146,0.842360\n321.3122,0.869214\n321.0462,0.880299\n320.7881,0.885118\n320.7881,0.885118\n320.1391,0.876033\n319.5291,0.862304\n318.8851,0.849653\n318.8851,0.849653\n318.1632,0.851882\n317.8184,0.853899\n317.5535,0.857423\n317.5535,0.857423\n316.9014,0.884127\n316.3573,0.906680\n315.7850,0.934978\n315.0506,0.978897\n315.0506,0.978897\n314.6396,0.992611\n314.3494,1.006325\n314.0668,1.016795\n314.0668,1.016795\n313.8595,1.032671\n313.6105,1.043681\n313.4038,1.054697\n313.4038,1.054697\n312.7146,1.078631\n311.7510,1.116601\n310.6558,1.155761\n310.6558,1.155761\n310.1624,1.155761\n309.6775,1.155761\n309.2077,1.155761\n309.2077,1.155761\n308.6262,1.146528\n308.0468,1.137297\n307.4696,1.128066\n307.4696,1.128066\n306.7827,1.129019\n306.1123,1.129864\n305.4514,1.130495\n305.4514,1.130495\n305.0717,1.136324\n304.7062,1.142155\n304.3481,1.147985\n304.3481,1.147985\n303.7442,1.170159\n303.3130,1.186713\n302.8111,1.198520\n302.8111,1.198520\n302.4586,1.217955\n302.1069,1.237390\n301.7560,1.256826\n301.7560,1.256826\n301.2808,1.263970\n300.8136,1.277701\n299.9561,1.309788\n299.9561,1.309788\n299.6475,1.312560\n299.3523,1.315116\n299.0641,1.317562\n299.0641,1.317562\n298.4999,1.314160\n297.9506,1.310759\n297.4095,1.307359\n297.4095,1.307359\n296.5692,1.285494\n295.7461,1.263629\n294.9337,1.241763\n294.9337,1.241763\n294.5993,1.241763\n294.2656,1.241763\n293.9327,1.241763\n293.9327,1.241763\n292.8835,1.264582\n291.8417,1.287293\n290.8073,1.309788\n290.8073,1.309788\n290.1857,1.308833\n289.5728,1.307988\n288.9744,1.307359\n288.9744,1.307359\n288.3044,1.300915\n287.4842,1.289830\n285.8219,1.264601\n285.8219,1.264601\n285.6386,1.255369\n285.4556,1.246137\n285.2727,1.236905\n285.2727,1.236905\n284.0071,1.206310\n282.7641,1.175825\n281.5375,1.145557\n281.5375,1.145557\n281.2328,1.143127\n280.9287,1.140700\n280.6253,1.138268\n280.6253,1.138268\n280.4252,1.142246\n280.3206,1.147410\n280.2217,1.158191\n280.2217,1.158191\n279.6446,1.163391\n279.0753,1.168377\n278.5195,1.173253\n278.5195,1.173253\n277.7842,1.160207\n277.3869,1.150505\n276.9854,1.135838\n276.9854,1.135838\n276.2754,1.091748\n275.7911,1.062345\n275.3464,1.026999\n275.3464,1.026999\n274.7551,1.000547\n274.4022,0.981542\n274.0877,0.968693\n274.0877,0.968693\n273.4938,0.968693\n272.9130,0.968693\n272.3400,0.968693\n272.3400,0.968693\n272.0856,0.977294\n271.8422,0.985682\n271.6045,0.993961\n271.6045,0.993961\n271.0213,0.994915\n270.4509,0.995758\n269.8882,0.996389\n269.8882,0.996389\n269.4752,0.979403\n269.0738,0.962521\n268.6788,0.945857\n268.6788,0.945857\n268.4997,0.933244\n267.8956,0.905510\n266.7707,0.847221\n266.7707,0.847221\n266.0027,0.819991\n265.5153,0.806261\n264.8895,0.794258\n264.8895,0.794258\n264.5365,0.796061\n264.1945,0.797641\n263.8583,0.799120\n263.8583,0.799120\n263.7021,0.810273\n263.5460,0.821324\n263.3902,0.832158\n263.3902,0.832158\n263.0355,0.832158\n262.6866,0.832158\n262.3485,0.832158\n262.3485,0.832158\n261.5172,0.811843\n260.9238,0.793036\n260.6379,0.779200\n260.6379,0.779200\n260.0384,0.760754\n259.4477,0.739904\n258.6704,0.711487\n257.5164,0.670357\n257.5164,0.670357\n257.1404,0.670357\n256.7749,0.670357\n256.4151,0.670357\n256.4151,0.670357\n256.2675,0.678964\n256.1202,0.687342\n255.9730,0.695622\n255.9730,0.695622\n255.7210,0.695622\n255.4696,0.695622\n255.2187,0.695622\n255.2187,0.695622\n253.9327,0.650803\n253.0315,0.619479\n252.3805,0.597531\n251.8498,0.580811\n251.3123,0.565163\n250.6433,0.546456\n250.6433,0.546456\n250.5284,0.537857\n250.4226,0.529469\n250.3213,0.521190\n250.3213,0.521190\n250.1807,0.521190\n250.0403,0.521190\n249.9000,0.521190\n249.9000,0.521190\n249.7873,0.518251\n249.6550,0.514388\n249.4676,0.508691\n249.1898,0.500223\n248.7870,0.488071\n248.2250,0.471292\n247.4712,0.449000\n246.4943,0.420236\n245.2653,0.384102\n243.7578,0.339670\n241.9489,0.286030\n241.9489,0.286030\n241.7807,0.284228\n241.6169,0.282645\n241.4617,0.281170\n241.4617,0.281170\n241.3925,0.274989\n241.3316,0.269022\n241.2748,0.263186\n241.2748,0.263186\n241.1076,0.262237\n240.9447,0.261382\n240.7904,0.260763\n240.7904,0.260763\n240.7539,0.256405\n240.7215,0.252149\n240.6974,0.248120\n240.6974,0.248120\n240.4018,0.240849\n240.1522,0.237569\n239.7350,0.235478\n239.7350,0.235478\n238.8732,0.216535\n238.0200,0.197584\n237.1750,0.178632\n236.3374,0.159687\n235.5067,0.140728\n234.6823,0.121790\n234.4882,0.121790\n234.0650,0.122412\n233.6395,0.123263\n233.2078,0.124211\n233.2078,0.124211\n232.6458,0.134432\n232.0788,0.144636\n231.5107,0.154819\n231.5107,0.154819\n231.3682,0.160649\n231.2182,0.166489\n231.0646,0.172311\n231.0646,0.172311\n230.9448,0.172311\n230.8252,0.172311\n230.7056,0.172311\n230.7056,0.172311\n230.4853,0.181243\n230.0619,0.194986\n229.4626,0.213332\n228.7152,0.236134\n227.8473,0.263186\n226.8863,0.294290\n225.8589,0.329255\n##END=\n"