b"##TITLE=Ethanedithioamide, N,N'-dimethyl-\n##JCAMP-DX=4.24\n##DATA TYPE=UV/VIS SPECTRUM\n##ORIGIN=INSTITUTE OF ENERGY PROBLEMS OF CHEMICAL PHYSICS, RAS\n##OWNER=INEP CP RAS, NIST OSRD\nCollection (C) 2007 copyright by the U.S. Secretary of Commerce\non behalf of the United States of America. All rights reserved.\n##CAS REGISTRY NO=120-79-6\n##MOLFORM=C4H8N2S2\n##MP=138\n##SOURCE REFERENCE=RAS UV No. 19692\n##$NIST SQUIB=1962LAN58\n##$NIST SOURCE=TYUGLMTE\n##SPECTROMETER/DATA SYSTEM=Beckman DU\n##XUNITS=Wavelength (nm)\n##YUNITS=Logarithm epsilon\n##XFACTOR=1.0\n##YFACTOR=1.0\n##FIRSTX=214.17\n##LASTX=369\n##FIRSTY=4.14\n##MAXX=369\n##MINX=214.17\n##MAXY=4.147\n##MINY=2.62\n##NPOINTS=158\n##$REF AUTHOR=Lang (editor), L.\n##$REF JOURNAL=Absorption Spectra ih the Ultraviolet and Visible Region\n##$REF VOLUME=3\n##$REF PAGE=58\n##$REF DATE=1962\n##XYPOINTS=(XY..XY)\n214.17,4.140\n215.00,4.113\n215.83,4.090\n216.50,4.063\n217.33,4.039\n218.17,4.016\n218.83,3.989\n219.67,3.966\n220.50,3.942\n221.50,3.919\n222.33,3.896\n223.17,3.872\n224.17,3.849\n225.17,3.829\n226.17,3.809\n227.17,3.788\n228.17,3.768\n229.33,3.748\n230.33,3.728\n231.33,3.708\n232.33,3.688\n233.33,3.668\n234.33,3.648\n235.33,3.624\n236.33,3.604\n237.17,3.581\n238.17,3.561\n239.00,3.537\n240.00,3.514\n241.00,3.491\n242.00,3.467\n242.83,3.444\n243.67,3.420\n244.67,3.397\n245.50,3.373\n246.50,3.350\n247.50,3.330\n248.33,3.306\n249.50,3.286\n250.67,3.266\n252.00,3.253\n253.50,3.253\n254.83,3.263\n256.17,3.273\n257.33,3.290\n258.33,3.310\n259.33,3.330\n260.33,3.350\n261.33,3.373\n262.17,3.397\n263.17,3.420\n264.00,3.444\n264.83,3.467\n265.67,3.491\n266.50,3.514\n267.33,3.541\n268.33,3.564\n269.17,3.591\n270.00,3.618\n270.83,3.645\n271.67,3.668\n272.50,3.695\n273.33,3.718\n274.00,3.745\n275.00,3.768\n275.83,3.795\n276.67,3.822\n277.67,3.842\n278.50,3.869\n279.50,3.889\n280.33,3.912\n281.33,3.932\n282.33,3.952\n283.33,3.973\n284.50,3.989\n285.67,4.009\n286.83,4.026\n288.00,4.046\n289.17,4.063\n290.50,4.080\n291.83,4.096\n293.17,4.110\n294.50,4.123\n295.83,4.133\n297.33,4.137\n298.67,4.147\n300.17,4.147\n301.67,4.147\n303.17,4.147\n304.67,4.140\n306.17,4.133\n307.50,4.123\n309.00,4.113\n310.33,4.100\n311.67,4.083\n313.00,4.066\n314.17,4.046\n315.33,4.026\n316.50,4.009\n317.50,3.989\n318.33,3.966\n319.33,3.946\n320.33,3.926\n321.33,3.902\n322.33,3.879\n323.17,3.855\n324.17,3.835\n325.17,3.812\n326.00,3.788\n327.00,3.768\n327.83,3.745\n328.83,3.721\n329.67,3.698\n330.67,3.675\n331.50,3.648\n332.50,3.624\n333.33,3.598\n334.17,3.574\n335.17,3.551\n336.00,3.527\n336.83,3.504\n337.67,3.481\n338.50,3.457\n339.33,3.434\n340.17,3.410\n341.17,3.387\n342.00,3.360\n342.83,3.337\n343.67,3.310\n344.50,3.286\n345.33,3.263\n346.33,3.240\n347.17,3.213\n348.00,3.189\n349.00,3.166\n349.83,3.139\n350.67,3.116\n351.50,3.092\n352.33,3.069\n353.33,3.045\n354.17,3.022\n355.17,3.002\n356.00,2.978\n357.00,2.955\n357.83,2.932\n358.67,2.908\n359.50,2.885\n360.33,2.861\n361.17,2.838\n362.00,2.814\n362.83,2.791\n363.67,2.768\n364.67,2.744\n365.50,2.717\n366.50,2.694\n367.33,2.671\n368.17,2.644\n369.00,2.620\n##END=\n"