b'##TITLE=Pyrrolidine\n##JCAMP-DX=4.24\n##DATA TYPE=UV/VIS SPECTRUM\n##ORIGIN=INSTITUTE OF ENERGY PROBLEMS OF CHEMICAL PHYSICS, RAS\n##OWNER=INEP CP RAS, NIST OSRD\nCollection (C) 2007 copyright by the U.S. Secretary of Commerce\non behalf of the United States of America. All rights reserved.\n##CAS REGISTRY NO=123-75-1\n##MOLFORM=C4H9N\n##MP=-57.8\n##BP=86.5\n##SOURCE REFERENCE=RAS UV No. 794\n##$NIST SQUIB=1953PIC/COR1618-1622\n##$NIST SOURCE=TSGMTE\n##SPECTROMETER/DATA SYSTEM=Fluorite prism vacuum spectrograph or Beckman spectrophotometer, Model DU\n##XUNITS=Wavelength (nm)\n##YUNITS=Logarithm epsilon\n##XFACTOR=1.000000\n##YFACTOR=1.000000\n##FIRSTX=241.3030\n##LASTX=157.0976\n##FIRSTY=1.99027\n##MAXX=241.303\n##MINX=157.098\n##MAXY=3.44939\n##MINY=1.99027\n##NPOINTS=137\n##$REF AUTHOR=Pickett, L.W.; Corning, M.E.; Wieder, G.M.; Semenow, D.A.; Buckley, J.M.\n##$REF TITLE=The vacuum ultraviolet spectra of cyclic compounds. III. Amines\n##$REF JOURNAL=J. Am. Chem. Soc.\n##$REF VOLUME=75\n##$REF PAGE=1618-1622\n##$REF DATE=1953\n##XYPOINTS=(XY..XY)\n241.3030,1.990266\n240.2017,2.066618\n239.1550,2.122091\n238.0364,2.205853\n238.0364,2.205853\n235.9114,2.280307\n233.9534,2.339349\n232.1509,2.387539\n230.4931,2.427690\n228.9701,2.461674\n227.5729,2.490799\n226.2932,2.516019\n225.1230,2.538061\n224.0553,2.557491\n223.0833,2.574764\n222.2005,2.590253\n221.4010,2.604275\n220.6791,2.617099\n220.6791,2.617099\n219.5638,2.634400\n218.4087,2.659864\n217.2584,2.689554\n216.1560,2.720185\n215.1425,2.749218\n214.2579,2.774724\n214.2579,2.774724\n213.5389,2.804637\n212.8656,2.833162\n212.2342,2.860398\n211.6406,2.886435\n211.0810,2.911350\n210.5518,2.935215\n210.0494,2.958093\n209.5702,2.980043\n209.1108,3.001115\n208.6680,3.021358\n208.2382,3.040812\n207.8184,3.059520\n207.4053,3.077514\n206.9957,3.094829\n206.5867,3.111494\n206.1751,3.127536\n205.7580,3.142982\n205.7580,3.142982\n205.3349,3.154074\n204.9030,3.165336\n204.4601,3.176624\n204.0041,3.187808\n203.5331,3.198772\n203.0450,3.209409\n202.5379,3.219625\n202.0100,3.229333\n201.4595,3.238453\n200.8845,3.246914\n200.2834,3.254645\n199.6545,3.261580\n198.9963,3.267655\n198.3074,3.272805\n197.5863,3.276962\n196.8316,3.280057\n196.0423,3.282016\n195.2171,3.282756\n194.3551,3.282187\n193.4552,3.280205\n193.4552,3.280205\n191.9860,3.269701\n190.8665,3.261361\n190.0060,3.254661\n189.3189,3.249013\n188.7238,3.243786\n188.1413,3.238315\n187.4943,3.231898\n186.7078,3.223790\n186.7078,3.223790\n185.6928,3.223092\n184.9887,3.226074\n184.1097,3.235806\n184.1097,3.235806\n183.6442,3.244558\n183.1968,3.253430\n182.7651,3.262366\n182.3465,3.271317\n181.9385,3.280234\n181.5387,3.289075\n181.1448,3.297800\n180.7545,3.306371\n180.3654,3.314756\n179.9753,3.322923\n179.5820,3.330843\n179.1834,3.338491\n178.7772,3.345841\n178.3615,3.352870\n177.9342,3.359555\n177.4932,3.365877\n177.0367,3.371814\n176.5628,3.377348\n176.0695,3.382458\n175.5551,3.387126\n175.0179,3.391333\n174.4561,3.395057\n173.8684,3.398280\n173.2530,3.400979\n172.6086,3.403133\n171.9339,3.404717\n171.2275,3.405705\n170.4883,3.406071\n170.4883,3.406071\n169.7854,3.403529\n169.0852,3.400934\n168.3843,3.398246\n168.3843,3.398246\n167.8871,3.394163\n167.3791,3.389762\n166.8620,3.385184\n166.3379,3.380579\n165.8085,3.376101\n165.2758,3.371911\n164.7414,3.368176\n164.2072,3.365068\n163.6749,3.362760\n163.1461,3.361427\n162.6224,3.361237\n162.1053,3.362352\n161.5965,3.364922\n161.0974,3.369078\n160.6094,3.374931\n160.6094,3.374931\n160.3584,3.379773\n160.1414,3.383997\n159.9370,3.388094\n159.7236,3.392535\n159.4801,3.397772\n159.1857,3.404232\n158.8198,3.412307\n158.3624,3.422345\n157.7944,3.434634\n157.0976,3.449393\n##END=\n'