b'##TITLE=Formamide, N-methyl-\n##JCAMP-DX=4.24\n##DATA TYPE=UV/VIS SPECTRUM\n##ORIGIN=INSTITUTE OF ENERGY PROBLEMS OF CHEMICAL PHYSICS, RAS\n##OWNER=INEP CP RAS, NIST OSRD\nCollection (C) 2007 copyright by the U.S. Secretary of Commerce\non behalf of the United States of America. All rights reserved.\n##CAS REGISTRY NO=123-39-7\n##MOLFORM=C2H5NO\n##MP=-3.8\n##BP=199.5\n##SOURCE REFERENCE=RAS UV No. 3944\n##$NIST SQUIB=1967NIE/SCH2297-2304\n##$NIST SOURCE=TSGMTE\n##SPECTROMETER/DATA SYSTEM=n.i.g.\n##XUNITS=Wavelength (nm)\n##YUNITS=Logarithm epsilon\n##XFACTOR=1.000000\n##YFACTOR=1.000000\n##FIRSTX=180.5697\n##LASTX=211.7903\n##FIRSTY=3.59764\n##MAXX=211.79\n##MINX=180.57\n##MAXY=3.59764\n##MINY=2.4111\n##NPOINTS=191\n##$REF AUTHOR=Nielsen, E.B.; Schellman, J.A.\n##$REF TITLE=The absorption spectra of simple amides and peptides\n##$REF JOURNAL=J. Phys. Chem.\n##$REF VOLUME=71\n##$REF NUMBER=7\n##$REF PAGE=2297-2304\n##$REF DATE=1967\n##XYPOINTS=(XY..XY)\n180.5697,3.597643\n180.6422,3.581497\n180.6529,3.595480\n181.1620,3.566827\n181.1650,3.570863\n181.3378,3.560368\n181.3393,3.562421\n181.4227,3.560332\n181.5985,3.553776\n181.6000,3.555860\n182.4715,3.542277\n182.5550,3.540089\n182.8203,3.539971\n182.9141,3.537495\n183.0839,3.537419\n183.1779,3.535201\n183.2629,3.535163\n183.6131,3.535005\n184.6758,3.536706\n185.0260,3.536549\n185.1232,3.538946\n185.4735,3.538789\n186.3604,3.547235\n186.4453,3.547198\n186.5423,3.549272\n186.7121,3.549198\n186.8093,3.551526\n186.8942,3.551489\n187.0776,3.555592\n187.1625,3.555555\n187.1642,3.557890\n187.3446,3.557813\n188.0543,3.570271\n188.2377,3.574201\n188.3226,3.574166\n188.3243,3.576403\n188.4198,3.576364\n188.5062,3.578308\n188.6866,3.578234\n189.5736,3.585953\n189.7434,3.585885\n189.8406,3.588024\n190.4561,3.587779\n191.5157,3.585176\n191.6006,3.585142\n191.6947,3.583155\n191.8645,3.583087\n191.9585,3.581091\n192.1266,3.578809\n192.1283,3.581022\n192.3070,3.578736\n192.3905,3.576724\n193.0028,3.572238\n193.1000,3.574446\n193.1849,3.574411\n193.3622,3.570082\n193.4471,3.570047\n193.5288,3.565713\n193.5305,3.567994\n193.6243,3.565673\n193.7912,3.561517\n193.8850,3.559161\n193.8867,3.561476\n193.9699,3.559125\n194.0533,3.557020\n194.6702,3.543586\n194.7551,3.543549\n195.0158,3.536694\n195.0992,3.534477\n195.1007,3.536656\n195.1947,3.534434\n195.4446,3.527159\n196.3192,3.500694\n196.3206,3.503048\n196.4843,3.493169\n196.4858,3.495564\n197.4375,3.453384\n197.4404,3.458618\n197.5207,3.450366\n197.5224,3.453338\n197.6147,3.447655\n198.2163,3.421538\n198.2981,3.415426\n198.2997,3.418646\n198.4738,3.406245\n198.4753,3.409169\n198.5573,3.403249\n198.5587,3.406193\n198.6390,3.396872\n198.6422,3.403197\n198.7330,3.393803\n198.7345,3.396813\n198.8163,3.390340\n199.5104,3.353772\n199.5134,3.360345\n199.6756,3.343181\n199.6771,3.346561\n199.7711,3.343114\n199.8528,3.335782\n199.8543,3.339220\n199.9346,3.328324\n199.9362,3.332256\n200.1938,3.313395\n200.1953,3.317014\n200.3742,3.313260\n200.4576,3.309545\n201.1484,3.255872\n201.1516,3.264599\n201.3151,3.246817\n201.4925,3.238101\n201.4955,3.246659\n201.5742,3.228741\n201.5757,3.233135\n201.6683,3.224215\n201.6698,3.228654\n201.7515,3.219087\n201.8349,3.214468\n201.8364,3.219008\n201.9289,3.209790\n202.3531,3.173914\n202.5289,3.157775\n202.5306,3.163585\n202.6123,3.152451\n202.7078,3.152348\n202.8730,3.135383\n202.8745,3.140823\n202.9670,3.129764\n202.9685,3.135275\n203.0502,3.123380\n203.0519,3.129667\n203.2292,3.117503\n203.2306,3.123171\n203.3141,3.117403\n203.3958,3.105002\n203.3975,3.111558\n203.4898,3.098973\n203.4913,3.104886\n203.5732,3.092872\n203.6565,3.085919\n203.6582,3.092767\n203.7505,3.079617\n203.8339,3.073236\n203.8354,3.079508\n203.9188,3.073126\n204.0006,3.059372\n204.0021,3.065846\n204.1795,3.052554\n204.1810,3.059129\n204.2644,3.052438\n204.6189,3.022791\n204.7038,3.022666\n204.7872,3.015384\n204.8811,3.007043\n204.8828,3.015242\n205.0479,2.991806\n205.9284,2.930014\n206.0118,2.920981\n206.0967,2.920824\n206.1891,2.901141\n206.1908,2.911577\n206.2740,2.900976\n206.3574,2.891313\n206.4529,2.891123\n206.7136,2.859445\n206.7970,2.848799\n206.7985,2.859264\n206.9668,2.848428\n207.3184,2.775608\n207.3213,2.799982\n207.4016,2.761044\n207.4033,2.775388\n207.6669,2.760334\n207.7503,2.746917\n207.8458,2.746654\n208.0125,2.716700\n208.4582,2.715378\n208.5385,2.667588\n208.5416,2.700473\n208.6340,2.667272\n208.7174,2.650586\n208.8978,2.649964\n208.9812,2.632586\n209.1600,2.611848\n209.1617,2.631938\n209.3298,2.611207\n209.4238,2.592129\n210.9109,2.444099\n211.1762,2.442626\n211.2597,2.414261\n211.3552,2.413693\n211.7903,2.411098\n##END=\n'