b'##TITLE=2,4-Pentanedione\n##JCAMP-DX=4.24\n##DATA TYPE=UV/VIS SPECTRUM\n##ORIGIN=INSTITUTE OF ENERGY PROBLEMS OF CHEMICAL PHYSICS, RAS\n##OWNER=INEP CP RAS, NIST OSRD\nCollection (C) 2007 copyright by the U.S. Secretary of Commerce\non behalf of the United States of America. All rights reserved.\n##CAS REGISTRY NO=123-54-6\n##MOLFORM=C5H8O2\n##MP=-23\n##BP=138\n##SOURCE REFERENCE=RAS UV No. 3482\n##$NIST SQUIB=1986BER/KAM7744-7751\n##$NIST SOURCE=TSGMTE\n##SPECTROMETER/DATA SYSTEM=Cary 219\n##XUNITS=Wavelength (nm)\n##YUNITS=Logarithm epsilon\n##XFACTOR=1.000000\n##YFACTOR=1.000000\n##FIRSTX=287.2101\n##LASTX=314.8789\n##FIRSTY=4.30615\n##MAXX=314.879\n##MINX=287.21\n##MAXY=4.33674\n##MINY=3.53002\n##NPOINTS=187\n##$REF AUTHOR=Bernasconi, C.F.; Kamararioti, A.\n##$REF TITLE=Nucleophilic addition to olefins. 19. Abnormally high intrinsic barrier in the reaction of piperidine and morpholine with benzylideneacetylacetone\n##$REF JOURNAL=J. Am. Chem. Soc.\n##$REF VOLUME=108\n##$REF NUMBER=24\n##$REF PAGE=7744-7751\n##$REF DATE=1986\n##XYPOINTS=(XY..XY)\n287.2101,4.306148\n287.4587,4.306725\n287.4836,4.309392\n287.7321,4.309965\n287.7467,4.311516\n288.0256,4.312084\n288.0505,4.314718\n288.2991,4.315284\n288.3136,4.316816\n288.5622,4.317379\n288.5774,4.318968\n288.8253,4.319465\n288.8405,4.321046\n289.1139,4.321034\n289.1291,4.322609\n289.3770,4.323102\n289.3922,4.324670\n289.6401,4.325160\n289.6553,4.326720\n289.9288,4.326709\n289.9391,4.327767\n290.1870,4.328254\n290.1974,4.329308\n290.4404,4.329298\n290.4501,4.330288\n290.7291,4.330833\n290.7388,4.331819\n290.9818,4.331809\n290.9873,4.332363\n291.2352,4.332845\n291.2401,4.333336\n291.5190,4.333877\n291.5239,4.334367\n291.7669,4.334357\n291.7718,4.334846\n292.2682,4.335865\n292.2731,4.336353\n292.5465,4.336342\n294.5469,4.335773\n294.8252,4.336250\n294.8301,4.336737\n295.0731,4.336728\n296.5321,4.330597\n296.7551,4.328544\n296.7697,4.330031\n296.9775,4.326420\n296.9927,4.327976\n297.2260,4.323845\n297.2461,4.325910\n297.4435,4.321193\n297.4636,4.323270\n297.6665,4.319096\n297.6817,4.320678\n297.8944,4.317498\n297.9096,4.319086\n298.1375,4.314293\n298.1630,4.316977\n298.3501,4.311065\n298.3757,4.313769\n298.5683,4.308399\n298.5883,4.310538\n298.8162,4.305649\n298.8369,4.307867\n299.0343,4.302949\n299.0544,4.305115\n299.2519,4.300166\n299.2725,4.302412\n299.4803,4.295225\n299.5205,4.299624\n299.6979,4.292392\n299.7234,4.295214\n299.9361,4.291841\n300.5589,4.276345\n300.7618,4.271692\n300.7971,4.275774\n300.9848,4.265770\n301.0304,4.271113\n301.1823,4.260348\n301.2230,4.265184\n301.3853,4.255519\n301.4205,4.259755\n301.6083,4.249371\n301.6532,4.254845\n301.8106,4.244342\n301.8459,4.248688\n302.0032,4.238034\n302.0488,4.243727\n302.2262,4.231631\n302.2718,4.237408\n302.4188,4.225133\n302.4644,4.230997\n302.6267,4.220531\n302.6570,4.224491\n302.8545,4.214509\n302.8952,4.219880\n303.0471,4.207748\n303.0927,4.213850\n303.2549,4.202957\n303.2853,4.207079\n303.4476,4.196013\n303.4931,4.202280\n303.6754,4.189638\n303.7161,4.195323\n303.8729,4.183170\n303.9136,4.188940\n304.0759,4.177395\n304.1111,4.182462\n304.2940,4.169309\n304.3444,4.176676\n304.4963,4.163255\n304.5316,4.168488\n304.7193,4.160235\n304.7345,4.162514\n305.1094,4.140762\n305.1198,4.142384\n305.3124,4.134391\n305.3476,4.139981\n305.5402,4.127036\n305.5810,4.133597\n305.7377,4.119556\n305.7784,4.126230\n305.9455,4.113679\n305.9759,4.118736\n306.1582,4.108545\n306.1837,4.112848\n306.3867,4.100840\n306.4268,4.107702\n306.5841,4.092891\n306.6243,4.099879\n306.7968,4.087504\n306.8223,4.092019\n307.0350,4.081170\n307.0654,4.086619\n307.2374,4.073743\n307.2732,4.080275\n307.4354,4.065391\n307.4755,4.072832\n307.6682,4.057684\n307.7034,4.064346\n307.8711,4.049958\n307.9064,4.056738\n308.0637,4.040047\n308.1087,4.048877\n308.2612,4.030891\n308.3013,4.038941\n308.4842,4.020528\n308.5298,4.029883\n308.6817,4.010946\n308.7224,4.019498\n308.8846,4.002333\n308.9199,4.009893\n309.1076,3.991257\n309.1526,4.001125\n309.2851,3.976418\n309.3452,3.990019\n309.4473,3.957424\n309.5226,3.975137\n309.6095,3.929859\n309.7153,3.956083\n309.8331,3.856894\n309.9844,3.900401\n310.3247,3.849229\n310.3399,3.853880\n310.4766,3.820191\n310.5623,3.847512\n310.6589,3.799684\n310.7148,3.818556\n310.8873,3.783846\n310.9274,3.797966\n311.0799,3.765376\n311.1249,3.781850\n311.2774,3.747979\n311.3175,3.763293\n311.5053,3.729851\n311.5460,3.746043\n312.3718,3.670678\n312.5796,3.653949\n312.6100,3.668370\n312.8275,3.641400\n312.8476,3.651249\n313.0402,3.625989\n313.0657,3.638930\n313.2632,3.615492\n313.2784,3.623429\n313.4813,3.602100\n313.5014,3.612869\n314.8789,3.530016\n##END=\n'