b'##TITLE=Succinic acid imide\n##JCAMP-DX=4.24\n##DATA TYPE=UV/VIS SPECTRUM\n##ORIGIN=INSTITUTE OF ENERGY PROBLEMS OF CHEMICAL PHYSICS, RAS\n##OWNER=INEP CP RAS, NIST OSRD\nCollection (C) 2007 copyright by the U.S. Secretary of Commerce\non behalf of the United States of America. All rights reserved.\n##CAS REGISTRY NO=123-56-8\n##MOLFORM=C4H5NO2\n##MP=126.5\n##BP=287 dec\n##SOURCE REFERENCE=RAS UV No. 786\n##$NIST SQUIB=1953SAI955-956\n##$NIST SOURCE=TSGMTE\n##SPECTROMETER/DATA SYSTEM=n.i.g.\n##XUNITS=Wavelength (nm)\n##YUNITS=Logarithm epsilon\n##XFACTOR=1.000000\n##YFACTOR=1.000000\n##FIRSTX=201.0762\n##LASTX=259.4891\n##FIRSTY=3.91273\n##MAXX=259.489\n##MINX=201.076\n##MAXY=3.91273\n##MINY=0.812613\n##NPOINTS=108\n##$REF AUTHOR=Saidel, L.J.\n##$REF TITLE=Contribution of the ultra-violet absorption spectrum of asparagine to the problem of its structure\n##$REF JOURNAL=Nature (London)\n##$REF VOLUME=172\n##$REF PAGE=955-956\n##$REF DATE=1953\n##XYPOINTS=(XY..XY)\n201.0762,3.912730\n201.4574,3.875959\n201.9839,3.841430\n201.9839,3.841430\n202.0224,3.828565\n202.0608,3.815551\n202.0992,3.802236\n202.0992,3.802236\n202.1658,3.802219\n202.2354,3.802201\n202.3071,3.763019\n202.3071,3.763019\n202.3084,3.776324\n202.3097,3.789328\n202.3109,3.802182\n202.3109,3.802182\n202.3646,3.759886\n202.4230,3.755684\n202.4943,3.748772\n202.5905,3.737510\n202.7237,3.720257\n202.9059,3.695374\n203.1489,3.661218\n203.4650,3.616150\n203.8660,3.558528\n204.3639,3.486712\n204.9709,3.399061\n204.9709,3.399061\n205.5537,3.285138\n205.7152,3.242666\n205.9084,3.196483\n206.1240,3.150095\n206.3528,3.107005\n206.5855,3.070716\n206.8129,3.044732\n207.0258,3.032556\n207.0258,3.032556\n207.5740,2.902803\n207.7462,2.867349\n207.9490,2.831737\n208.1754,2.796014\n208.4180,2.760225\n208.6696,2.724419\n208.9231,2.688640\n209.1712,2.652936\n209.4067,2.617352\n209.4067,2.617352\n209.7567,2.598406\n209.9510,2.580250\n211.5062,2.476514\n212.0499,2.455772\n212.6822,2.435721\n213.3512,2.416102\n214.0048,2.396662\n217.1440,2.323575\n217.9759,2.306183\n218.7597,2.287279\n220.5313,2.232578\n221.2330,2.217117\n222.0400,2.196194\n222.8781,2.171828\n223.6733,2.146031\n224.3513,2.120818\n226.2132,2.070746\n226.9375,2.049476\n227.6837,2.027356\n228.4500,2.007519\n229.2345,1.993098\n229.2345,1.993098\n229.4188,1.983598\n231.3766,1.965668\n232.0894,1.969988\n232.7989,1.973435\n233.4772,1.972804\n234.0965,1.964887\n237.1736,1.965084\n238.1971,1.965482\n239.1254,1.959227\n239.7499,1.945174\n239.7499,1.945174\n242.1475,1.950465\n242.7899,1.941103\n243.4369,1.928956\n244.0820,1.914771\n245.9427,1.867426\n246.5168,1.852532\n247.0572,1.839323\n247.0572,1.839323\n248.0036,1.798805\n248.6254,1.771626\n251.8647,1.576019\n252.3090,1.539986\n252.8019,1.499889\n253.3362,1.456076\n256.0999,1.200287\n256.6018,1.146385\n257.0446,1.098024\n257.4318,1.055099\n257.7665,1.017513\n258.0522,0.985161\n258.2922,0.957947\n258.4897,0.935764\n258.6482,0.918513\n258.7710,0.906093\n258.8613,0.898402\n258.8613,0.898402\n259.1164,0.855222\n259.4891,0.812613\n##END=\n'