b'##TITLE=Diazenedicarboxamide\n##JCAMP-DX=4.24\n##DATA TYPE=UV/VIS SPECTRUM\n##ORIGIN=INSTITUTE OF ENERGY PROBLEMS OF CHEMICAL PHYSICS, RAS\n##OWNER=INEP CP RAS, NIST OSRD\nCollection (C) 2007 copyright by the U.S. Secretary of Commerce\non behalf of the United States of America. All rights reserved.\n##CAS REGISTRY NO=123-77-3\n##MOLFORM=C2H4N4O2\n##MP=225 dec.\n##SOURCE REFERENCE=RAS UV No. 14083\n##$NIST SQUIB=1974FAN/HER1187\n##$NIST SOURCE=TYUGLMTE\n##SPECTROMETER/DATA SYSTEM=Beckman DK-2A\n##XUNITS=Wavelength (nm)\n##YUNITS=Logarithm epsilon\n##XFACTOR=1.0\n##YFACTOR=1.0\n##FIRSTX=372.1\n##LASTX=499.68\n##FIRSTY=1.003\n##MAXX=499.68\n##MINX=372.1\n##MAXY=1.766\n##MINY=0.774\n##NPOINTS=92\n##$REF AUTHOR=Fantazier, R.M.; Herwch, J.E.\n##$REF JOURNAL=J. Am. Chem. Soc.\n##$REF VOLUME=96\n##$REF PAGE=1187\n##$REF DATE=1974\n##XYPOINTS=(XY..XY)\n372.10,1.003\n373.52,1.045\n375.17,1.084\n376.59,1.125\n378.01,1.157\n379.43,1.192\n380.61,1.229\n381.79,1.263\n382.97,1.294\n383.91,1.323\n385.10,1.351\n386.04,1.377\n386.99,1.401\n388.17,1.424\n388.88,1.446\n390.06,1.467\n390.77,1.487\n391.95,1.506\n393.13,1.524\n393.84,1.544\n395.02,1.560\n395.73,1.577\n396.67,1.592\n397.62,1.607\n398.56,1.622\n399.51,1.636\n400.69,1.649\n401.63,1.663\n402.82,1.675\n404.00,1.686\n405.18,1.697\n406.60,1.707\n407.78,1.719\n409.19,1.727\n410.61,1.737\n412.03,1.746\n413.45,1.754\n415.10,1.762\n417.23,1.766\n419.35,1.766\n421.48,1.766\n423.61,1.763\n425.50,1.757\n427.39,1.753\n429.28,1.748\n431.17,1.742\n433.06,1.736\n434.95,1.730\n436.60,1.722\n438.02,1.713\n439.44,1.704\n440.85,1.695\n442.27,1.686\n443.69,1.675\n445.11,1.664\n446.52,1.653\n447.94,1.641\n449.36,1.631\n450.78,1.618\n451.96,1.605\n453.14,1.592\n454.56,1.581\n455.97,1.567\n457.39,1.552\n458.81,1.537\n460.23,1.522\n461.64,1.506\n462.83,1.489\n464.24,1.472\n465.42,1.451\n466.84,1.433\n468.26,1.413\n469.68,1.395\n470.86,1.374\n472.28,1.351\n473.69,1.327\n475.11,1.305\n476.53,1.283\n477.95,1.254\n479.60,1.229\n481.25,1.202\n482.67,1.173\n484.33,1.141\n485.74,1.108\n487.40,1.078\n489.05,1.045\n490.70,1.010\n492.59,0.972\n494.25,0.922\n496.14,0.875\n497.79,0.822\n499.68,0.774\n##END=\n'