b'##TITLE=1,4-Dioxane\n##JCAMP-DX=4.24\n##DATA TYPE=UV/VIS SPECTRUM\n##ORIGIN=INSTITUTE OF ENERGY PROBLEMS OF CHEMICAL PHYSICS, RAS\n##OWNER=INEP CP RAS, NIST OSRD\nCollection (C) 2007 copyright by the U.S. Secretary of Commerce\non behalf of the United States of America. All rights reserved.\n##CAS REGISTRY NO=123-91-1\n##MOLFORM=C4H8O2\n##MP=11.8\n##BP=101.5\n##SOURCE REFERENCE=RAS UV No. 3275\n##$NIST SQUIB=1951PIC/HOE4865-4869\n##$NIST SOURCE=TSGMTE\n##SPECTROMETER/DATA SYSTEM=Hilger fluorite prism spectrograph\n##XUNITS=Wavelength (nm)\n##YUNITS=Logarithm epsilon\n##XFACTOR=1.000000\n##YFACTOR=1.000000\n##FIRSTX=187.9977\n##LASTX=167.6905\n##FIRSTY=2.82747\n##MAXX=187.998\n##MINX=167.69\n##MAXY=3.67548\n##MINY=1.8032\n##NPOINTS=375\n##$REF AUTHOR=Pickett, L.W.; Hoeflich, N.J.; Liu, T.-C.\n##$REF TITLE=The vacuum ultraviolet absorption spectra of cyclic compounds. II. Tetrahydrofuran, tetrahydropyran, 1,4-dioxane and furan\n##$REF JOURNAL=J. Am. Chem. Soc.\n##$REF VOLUME=73\n##$REF PAGE=4865-4869\n##$REF DATE=1951\n##XYPOINTS=(XY..XY)\n187.9977,2.827472\n187.9592,2.770241\n187.9266,2.722486\n187.8978,2.681261\n187.8706,2.643617\n187.8429,2.606608\n187.8124,2.567289\n187.7770,2.522710\n187.7345,2.469927\n187.6829,2.405992\n187.6829,2.405992\n187.6621,2.401700\n187.6421,2.397505\n187.6237,2.393504\n187.6237,2.393504\n187.5582,2.390371\n187.5201,2.387508\n187.4769,2.382458\n187.4577,2.387498\n187.3787,2.494838\n187.3138,2.583078\n187.2610,2.654511\n187.2187,2.711429\n187.1851,2.756124\n187.1584,2.790888\n187.1368,2.818013\n187.1186,2.839791\n187.1019,2.858515\n187.0851,2.876476\n187.0664,2.895968\n187.0664,2.895968\n187.0466,2.898883\n187.0253,2.901792\n187.0031,2.904700\n187.0031,2.904700\n186.9568,2.901167\n186.9252,2.885549\n186.8902,2.852086\n186.8218,2.772092\n186.8218,2.772092\n186.8012,2.770285\n186.7896,2.767939\n186.7768,2.763041\n186.7466,2.769747\n186.7320,2.770537\n186.7174,2.771234\n186.7029,2.771741\n186.7029,2.771741\n186.6779,2.777110\n186.6606,2.783445\n186.6365,2.796177\n186.6365,2.796177\n186.6124,2.840438\n186.5836,2.905211\n186.4014,3.125035\n186.4014,3.125035\n186.4006,3.128854\n186.4001,3.130992\n186.3997,3.133224\n186.3992,3.135645\n186.3835,3.170863\n186.3814,3.122553\n186.3630,3.120265\n186.3585,3.192007\n186.3454,3.118074\n186.3454,3.118074\n186.3143,3.064479\n186.2842,3.010927\n186.2547,2.957456\n186.2256,2.904105\n186.2256,2.904105\n186.1718,2.870947\n186.1188,2.837979\n186.0674,2.805111\n186.0674,2.805111\n186.0425,2.804203\n186.0176,2.803390\n185.9927,2.802766\n185.9927,2.802766\n185.9851,2.788729\n185.9782,2.774694\n185.9730,2.760664\n185.9641,2.802681\n185.9410,2.876992\n185.9226,2.928548\n185.9023,2.970640\n185.8739,3.016560\n185.8309,3.079601\n185.8309,3.079601\n185.7506,3.158583\n185.6857,3.225748\n185.6349,3.279418\n185.5966,3.317919\n185.5695,3.339576\n185.5695,3.339576\n185.5513,3.341220\n185.5322,3.342862\n185.5116,3.344499\n185.5116,3.344499\n185.5052,3.352674\n185.4973,3.361034\n185.4885,3.369486\n185.4661,3.340965\n185.4520,3.340200\n185.4379,3.339623\n185.4238,3.339140\n185.4238,3.339140\n185.3833,3.312390\n185.3436,3.285832\n185.3055,3.259372\n185.3055,3.259372\n185.2858,3.256890\n185.2676,3.254602\n185.2502,3.252411\n185.2502,3.252411\n185.2479,3.234143\n185.2474,3.197619\n185.2473,3.215880\n185.2213,3.237886\n185.1995,3.253927\n185.1701,3.276551\n185.1331,3.320859\n185.1331,3.320859\n185.0817,3.355890\n185.0507,3.372202\n185.0137,3.383778\n185.0137,3.383778\n184.8625,3.388860\n184.7672,3.393638\n184.6461,3.402208\n184.6461,3.402208\n184.6118,3.398408\n184.5783,3.394800\n184.5464,3.322492\n184.5464,3.322492\n184.5463,3.391290\n184.5463,3.391290\n184.5453,3.345422\n184.5450,3.368353\n184.5170,3.294799\n184.4875,3.267106\n184.4581,3.239413\n184.4581,3.239413\n184.4341,3.236808\n184.4109,3.234300\n184.3893,3.231986\n184.3893,3.231986\n184.3841,3.223602\n184.3797,3.215410\n184.3768,3.207317\n184.3570,3.235286\n184.3161,3.263014\n184.2430,3.324545\n184.1593,3.397173\n184.0864,3.458195\n184.0541,3.512959\n184.0500,3.503603\n184.0476,3.494253\n184.0459,3.484905\n184.0459,3.484905\n184.0011,3.481372\n183.9544,3.474010\n183.8952,3.459533\n183.8200,3.443874\n183.8200,3.443874\n183.8156,3.436217\n183.8128,3.428564\n183.8107,3.420914\n183.7910,3.448882\n183.7277,3.464655\n183.6539,3.485868\n183.5588,3.509754\n183.5588,3.509754\n183.4797,3.521844\n183.4007,3.534029\n183.3217,3.546402\n183.3217,3.546402\n183.2694,3.564204\n183.2172,3.582196\n183.1649,3.600281\n183.1649,3.600281\n183.1474,3.600668\n183.1290,3.601146\n183.1091,3.601809\n183.1091,3.601809\n183.1082,3.606493\n183.1072,3.611272\n183.1062,3.616239\n183.0814,3.601724\n183.0654,3.600417\n183.0509,3.599208\n183.0371,3.598191\n183.0371,3.598191\n182.9293,3.557217\n182.8614,3.535806\n182.8243,3.521945\n182.7907,3.534157\n182.7503,3.553694\n182.6900,3.592044\n182.6152,3.633842\n182.6152,3.633842\n182.5969,3.634225\n182.5770,3.634699\n182.5563,3.635359\n182.5563,3.635359\n182.5554,3.640043\n182.5544,3.644822\n182.5534,3.649789\n182.4731,3.621088\n182.4663,3.625738\n182.4610,3.630393\n182.4565,3.635051\n182.4565,3.635051\n182.4183,3.636931\n182.3801,3.638622\n182.3420,3.640218\n182.3420,3.640218\n182.3080,3.638855\n182.2748,3.637588\n182.2431,3.636515\n182.2431,3.636515\n182.2105,3.628770\n182.1786,3.621027\n182.1483,3.613289\n182.1483,3.613289\n182.1144,3.611910\n182.0813,3.610533\n182.0497,3.609161\n182.0497,3.609161\n181.9532,3.623270\n181.9034,3.632805\n181.8575,3.645937\n181.8575,3.645937\n181.8165,3.650481\n181.7772,3.655030\n181.7386,3.659582\n181.7386,3.659582\n181.5710,3.638786\n181.4855,3.629381\n181.4084,3.623305\n181.4084,3.623305\n181.3313,3.623064\n181.2557,3.622827\n181.1809,3.622594\n181.1809,3.622594\n181.0923,3.631109\n180.9604,3.645810\n180.8212,3.660112\n180.8212,3.660112\n180.7224,3.664472\n180.6236,3.668833\n180.5250,3.673194\n180.5250,3.673194\n180.3609,3.673950\n180.1987,3.674711\n180.0374,3.675475\n180.0374,3.675475\n179.9914,3.670658\n179.9455,3.665841\n179.8996,3.661024\n179.8996,3.661024\n179.5152,3.659659\n179.3473,3.658132\n179.2507,3.655134\n179.2507,3.655134\n179.1772,3.657432\n179.1038,3.659635\n179.0305,3.661649\n179.0305,3.661649\n178.9296,3.658667\n178.8693,3.655721\n178.7978,3.650285\n178.7978,3.650285\n178.6020,3.643270\n178.3759,3.632946\n178.2166,3.623780\n178.2166,3.623780\n177.7356,3.619405\n177.5424,3.616904\n177.4697,3.614135\n177.4697,3.614135\n177.3911,3.599864\n177.3125,3.585593\n177.2340,3.571322\n177.2340,3.571322\n177.0972,3.553871\n176.9658,3.535777\n176.8294,3.518609\n176.8294,3.518609\n176.8004,3.523185\n176.7728,3.527766\n176.7460,3.532350\n176.7460,3.532350\n176.7011,3.528836\n176.6399,3.520927\n176.5099,3.501845\n176.5099,3.501845\n176.4166,3.501537\n176.3234,3.501229\n176.2303,3.500921\n176.2303,3.500921\n176.1752,3.496885\n176.1005,3.487499\n175.9422,3.464719\n175.9171,3.462512\n175.8294,3.464470\n175.7404,3.466612\n175.6507,3.468846\n175.5717,3.465185\n175.4396,3.439814\n175.3076,3.414632\n175.1757,3.389544\n175.1757,3.389544\n175.0984,3.377393\n174.9236,3.345098\n174.5149,3.272659\n174.5149,3.272659\n174.4233,3.261152\n174.1977,3.227861\n173.6908,3.153504\n173.6908,3.153504\n173.6526,3.145730\n173.6158,3.137961\n173.5798,3.130193\n173.5798,3.130193\n173.3437,3.090836\n173.1728,3.059910\n172.9302,3.017129\n172.9302,3.017129\n172.7917,2.985069\n172.6800,2.961784\n172.4993,2.927312\n172.4993,2.927312\n172.3879,2.900691\n172.2185,2.863677\n171.9837,2.810863\n171.9837,2.810863\n171.8976,2.786640\n171.7330,2.743457\n171.5971,2.703772\n171.5971,2.703772\n171.5481,2.693959\n171.5003,2.684339\n171.4533,2.674816\n171.4533,2.674816\n171.2675,2.629858\n170.9257,2.550093\n170.7163,2.497686\n170.7163,2.497686\n170.6103,2.478957\n170.4789,2.450228\n170.4152,2.431647\n170.4152,2.431647\n170.2573,2.397051\n170.0406,2.347711\n169.7931,2.295240\n169.7931,2.295240\n169.7572,2.284008\n169.6977,2.268066\n169.6547,2.252278\n169.6547,2.252278\n169.4433,2.208363\n169.3019,2.177248\n169.1092,2.132264\n169.1092,2.132264\n168.9090,2.086340\n168.5822,2.007680\n168.3906,1.964047\n168.3906,1.964047\n168.1236,1.900288\n167.9056,1.850106\n167.8097,1.826037\n167.8097,1.826037\n167.7708,1.819872\n167.6905,1.803200\n##END=\n'