b'##TITLE=1,3-Propanediol, 2-(hydroxymethyl)-2-nitro-\n##JCAMP-DX=4.24\n##DATA TYPE=UV/VIS SPECTRUM\n##ORIGIN=INSTITUTE OF ENERGY PROBLEMS OF CHEMICAL PHYSICS, RAS\n##OWNER=INEP CP RAS, NIST OSRD\nCollection (C) 2007 copyright by the U.S. Secretary of Commerce\non behalf of the United States of America. All rights reserved.\n##CAS REGISTRY NO=126-11-4\n##MOLFORM=C4H9NO5\n##MP=165\n##BP=dec\n##SOURCE REFERENCE=RAS UV No. 13219\n##$NIST SQUIB=1963UNG/KIS121\n##$NIST SOURCE=TYUGLMTE\n##SPECTROMETER/DATA SYSTEM=Perkin-Elmer Model 21\n##XUNITS=Wavelength (nm)\n##YUNITS=Logarithm epsilon\n##XFACTOR=1.0\n##YFACTOR=1.0\n##FIRSTX=203.64\n##LASTX=319.08\n##FIRSTY=3.29\n##MAXX=319.08\n##MINX=203.64\n##MAXY=3.29\n##MINY=0.726\n##NPOINTS=116\n##$REF AUTHOR=Ungnabe, H.E.; Kisinger, L.W.\n##$REF JOURNAL=Tetrahedron\n##$REF VOLUME=19 (supplement)\n##$REF PAGE=121\n##$REF DATE=1963\n##XYPOINTS=(XY..XY)\n203.64,3.290\n205.86,3.197\n206.07,3.194\n206.27,3.190\n206.87,3.159\n207.88,3.125\n208.90,3.084\n209.91,3.046\n210.92,3.019\n211.93,2.960\n212.94,2.909\n213.95,2.864\n214.96,2.813\n215.97,2.765\n216.98,2.706\n217.99,2.658\n219.00,2.607\n220.02,2.555\n221.03,2.504\n222.04,2.442\n223.05,2.391\n224.06,2.339\n225.07,2.291\n226.08,2.223\n227.09,2.175\n228.10,2.123\n229.11,2.075\n230.12,2.010\n231.14,1.962\n232.15,1.914\n233.16,1.866\n234.17,1.818\n235.18,1.756\n236.19,1.704\n237.20,1.663\n238.21,1.619\n239.22,1.564\n240.23,1.519\n241.24,1.481\n242.26,1.450\n243.27,1.426\n244.28,1.406\n245.29,1.389\n246.30,1.378\n247.31,1.372\n248.32,1.361\n249.33,1.358\n250.34,1.358\n251.35,1.361\n252.36,1.368\n253.37,1.375\n254.39,1.378\n255.40,1.385\n256.41,1.392\n257.42,1.396\n258.43,1.406\n259.44,1.409\n260.45,1.409\n261.46,1.420\n262.47,1.423\n263.48,1.426\n264.49,1.437\n265.51,1.437\n266.52,1.440\n267.53,1.440\n268.54,1.444\n269.55,1.444\n270.56,1.444\n271.57,1.444\n272.58,1.440\n273.59,1.437\n274.60,1.433\n275.61,1.423\n276.63,1.420\n277.64,1.420\n278.65,1.409\n279.66,1.402\n280.67,1.399\n281.68,1.385\n282.69,1.382\n283.70,1.368\n284.71,1.361\n285.72,1.351\n286.73,1.330\n287.74,1.313\n288.76,1.296\n289.77,1.279\n290.78,1.262\n291.79,1.245\n292.80,1.227\n293.81,1.210\n294.82,1.190\n295.83,1.173\n296.84,1.155\n297.85,1.138\n298.86,1.121\n299.88,1.100\n300.89,1.076\n301.90,1.059\n302.91,1.042\n303.92,1.015\n304.93,0.998\n305.94,0.977\n306.95,0.956\n307.96,0.939\n308.97,0.922\n309.98,0.901\n311.00,0.877\n312.01,0.857\n313.02,0.840\n314.03,0.816\n315.04,0.799\n316.05,0.778\n317.06,0.761\n318.07,0.744\n319.08,0.726\n##END=\n'