b'##TITLE=2-Chloro-1,3-butadiene\n##JCAMP-DX=4.24\n##DATA TYPE=UV/VIS SPECTRUM\n##ORIGIN=INSTITUTE OF ENERGY PROBLEMS OF CHEMICAL PHYSICS, RAS\n##OWNER=INEP CP RAS, NIST OSRD\nCollection (C) 2007 copyright by the U.S. Secretary of Commerce\non behalf of the United States of America. All rights reserved.\n##CAS REGISTRY NO=126-99-8\n##MOLFORM=C4H5Cl\n##BP=59.4\n##SOURCE REFERENCE=RAS UV No. 20113\n##$NIST SQUIB=1969FIH/10\n##$NIST SOURCE=TYUGLMTE\n##SPECTROMETER/DATA SYSTEM=SF-4\n##XUNITS=Wavelength (nm)\n##YUNITS=Logarithm epsilon\n##XFACTOR=1.0\n##YFACTOR=1.0\n##FIRSTX=202.03\n##LASTX=239.07\n##FIRSTY=3.79\n##MAXX=239.07\n##MINX=202.03\n##MAXY=4.332\n##MINY=3.684\n##NPOINTS=112\n##$REF AUTHOR=Fihtengolts, V.S.; et al.\n##$REF JOURNAL=Atlas of UV Absorption Spectra of Substances Used in Synthetic Rubber Manufacture\n##$REF PAGE=10\n##$REF DATE=1969\n##XYPOINTS=(XY..XY)\n202.03,3.790\n202.21,3.794\n202.37,3.798\n202.54,3.802\n202.69,3.808\n203.06,3.823\n203.40,3.839\n203.74,3.856\n204.08,3.872\n204.42,3.886\n204.76,3.901\n205.10,3.916\n205.44,3.932\n205.77,3.945\n206.11,3.959\n206.45,3.973\n206.79,3.987\n207.13,4.000\n207.47,4.011\n207.81,4.023\n208.15,4.036\n208.49,4.047\n208.83,4.061\n209.17,4.074\n209.51,4.086\n209.85,4.099\n210.19,4.110\n210.53,4.124\n210.87,4.139\n211.21,4.150\n211.55,4.157\n211.89,4.170\n212.23,4.180\n212.57,4.191\n212.91,4.201\n213.25,4.212\n213.59,4.221\n213.93,4.229\n214.27,4.236\n214.61,4.243\n214.95,4.248\n215.29,4.252\n215.63,4.257\n215.97,4.262\n216.31,4.265\n216.65,4.268\n216.99,4.270\n217.32,4.273\n217.66,4.276\n218.00,4.278\n218.34,4.280\n218.68,4.284\n219.02,4.286\n219.36,4.290\n219.70,4.294\n220.04,4.298\n220.38,4.301\n220.72,4.306\n221.06,4.310\n221.40,4.316\n221.74,4.320\n222.08,4.325\n222.42,4.328\n222.76,4.331\n223.10,4.332\n223.44,4.330\n223.78,4.324\n224.12,4.316\n224.46,4.307\n224.80,4.301\n225.14,4.294\n225.48,4.287\n225.82,4.279\n226.16,4.270\n226.50,4.261\n226.84,4.256\n227.18,4.250\n227.52,4.243\n227.86,4.239\n228.20,4.235\n228.54,4.230\n228.87,4.226\n229.21,4.222\n229.55,4.219\n229.89,4.211\n230.23,4.206\n230.57,4.196\n230.91,4.185\n231.25,4.174\n231.59,4.164\n231.93,4.147\n232.27,4.135\n232.61,4.123\n232.95,4.108\n233.29,4.094\n233.63,4.079\n233.97,4.062\n234.31,4.045\n234.65,4.027\n234.99,4.003\n235.33,3.983\n235.67,3.963\n236.01,3.942\n236.35,3.918\n236.69,3.893\n237.03,3.867\n237.37,3.839\n237.71,3.815\n238.05,3.778\n238.39,3.745\n238.73,3.719\n239.07,3.684\n##END=\n'