b'##TITLE=1,3-Dichlorotetrafluoroacetone\n##JCAMP-DX=4.24\n##DATA TYPE=UV/VIS SPECTRUM\n##ORIGIN=INSTITUTE OF ENERGY PROBLEMS OF CHEMICAL PHYSICS, RAS\n##OWNER=INEP CP RAS, NIST OSRD\nCollection (C) 2007 copyright by the U.S. Secretary of Commerce\non behalf of the United States of America. All rights reserved.\n##CAS REGISTRY NO=127-21-9\n##MOLFORM=C3Cl2F4O\n##SOURCE REFERENCE=RAS UV No. 4\n##$NIST SQUIB=1962BOW/MAJ1541-1556\n##$NIST SOURCE=TSGMTE\n##SPECTROMETER/DATA SYSTEM=n.i.g.\n##XUNITS=Wavelength (nm)\n##YUNITS=Logarithm epsilon\n##XFACTOR=1.000000\n##YFACTOR=1.000000\n##FIRSTX=227.9012\n##LASTX=353.0952\n##FIRSTY=3.57745\n##MAXX=353.095\n##MINX=227.901\n##MAXY=4.94321\n##MINY=3.51632\n##NPOINTS=198\n##$REF AUTHOR=Bowles, R.; Majer, J.R.; Robb, J.C.\n##$REF TITLE=Photodecomposition of halogenated ketones. Part 1. The gas phase photolysis of 1,3-dichlorotetrafluoroacetone\n##$REF JOURNAL=Trans. Faraday Soc.\n##$REF VOLUME=58\n##$REF PAGE=1541-1556\n##$REF DATE=1962\n##XYPOINTS=(XY..XY)\n227.9012,3.577453\n229.0083,3.573466\n229.9505,3.571862\n230.9879,3.573426\n232.3813,3.578869\n234.3908,3.588776\n237.2771,3.603554\n237.2771,3.603554\n238.7322,3.635738\n240.1818,3.670311\n241.6344,3.705922\n243.0985,3.741533\n244.5828,3.776379\n244.5828,3.776379\n246.7483,3.840554\n247.8756,3.871908\n248.6564,3.885812\n248.6564,3.885812\n249.6746,3.925591\n250.6761,3.962512\n251.6609,3.997001\n252.6290,4.029398\n253.5804,4.059977\n254.5153,4.088963\n255.4337,4.116542\n256.3355,4.142870\n257.2209,4.168080\n258.0899,4.192284\n258.9425,4.215579\n259.7788,4.238048\n260.5989,4.259765\n261.4027,4.280793\n262.1903,4.301190\n262.9618,4.321005\n263.7172,4.340281\n264.4565,4.359060\n265.1798,4.377375\n265.8872,4.395259\n266.5786,4.412741\n267.2542,4.429846\n267.9139,4.446598\n268.5579,4.463018\n268.5579,4.463018\n269.1246,4.480360\n269.7490,4.498944\n270.4176,4.518172\n271.1170,4.537532\n271.8335,4.556590\n272.5539,4.574986\n273.2645,4.592416\n273.9519,4.608627\n274.6026,4.623399\n275.2030,4.636540\n275.7399,4.647873\n276.1996,4.657222\n276.5686,4.664413\n276.8336,4.669255\n276.9809,4.671531\n276.9809,4.671531\n277.0785,4.674673\n277.3050,4.678870\n277.5631,4.685045\n277.5631,4.685045\n278.3055,4.695189\n279.0083,4.705242\n279.6754,4.715178\n280.3112,4.724976\n280.9198,4.734612\n281.5053,4.744070\n282.0720,4.753332\n282.0720,4.753332\n283.7953,4.775311\n284.9599,4.789831\n285.6883,4.798855\n286.1028,4.803959\n286.3258,4.806514\n286.4796,4.807801\n286.4796,4.807801\n287.0187,4.816955\n287.4106,4.823926\n287.7681,4.831056\n288.2042,4.840526\n288.8317,4.854305\n288.8317,4.854305\n289.5839,4.861055\n290.4144,4.867221\n291.3072,4.872926\n292.2461,4.878284\n293.2151,4.883403\n294.1982,4.888386\n295.1794,4.893332\n296.1425,4.898334\n297.0716,4.903482\n297.0716,4.903482\n297.6064,4.911014\n298.2172,4.918377\n298.9197,4.925418\n299.7302,4.931993\n300.6645,4.937967\n301.7387,4.943211\n301.7387,4.943211\n302.8232,4.942748\n303.7244,4.940539\n304.4699,4.936884\n305.0868,4.932077\n305.6026,4.926416\n306.0446,4.920206\n306.4400,4.913771\n306.8163,4.907453\n307.2007,4.901611\n307.6207,4.896628\n307.6207,4.896628\n308.0595,4.896481\n308.4982,4.896285\n308.9370,4.896064\n308.9370,4.896064\n310.2787,4.904234\n311.5208,4.907812\n313.5905,4.908598\n313.5905,4.908598\n314.2475,4.904185\n314.9088,4.899677\n315.5790,4.895098\n315.5790,4.895098\n315.7722,4.887949\n315.9663,4.880674\n316.1637,4.873269\n316.3665,4.865731\n316.5771,4.858056\n316.7974,4.850238\n317.0300,4.842275\n317.2769,4.834161\n317.5403,4.825891\n317.8226,4.817459\n318.1258,4.808861\n318.4524,4.800091\n318.8044,4.791141\n319.1841,4.782007\n319.1841,4.782007\n319.6138,4.777443\n320.0176,4.772498\n320.5700,4.765365\n321.4457,4.754098\n322.8193,4.736453\n322.8193,4.736453\n323.8321,4.733249\n324.7096,4.732416\n325.5450,4.731383\n326.4313,4.727542\n327.4614,4.718155\n327.4614,4.718155\n327.9026,4.705523\n328.3478,4.692504\n328.7958,4.679066\n329.2457,4.665172\n329.6965,4.650782\n329.6965,4.650782\n329.9124,4.636914\n330.1283,4.622590\n330.3441,4.607777\n330.5600,4.592440\n330.7759,4.576542\n330.9918,4.560040\n331.2077,4.542887\n331.4235,4.525027\n331.6394,4.506402\n331.6394,4.506402\n332.1145,4.486437\n332.5896,4.465483\n333.0647,4.443409\n333.5398,4.420060\n333.5398,4.420060\n334.3664,4.403515\n335.2712,4.386984\n336.2374,4.370320\n337.2484,4.353356\n338.2878,4.335897\n339.3387,4.317716\n340.3848,4.298549\n341.4093,4.278084\n342.3956,4.255950\n342.3956,4.255950\n342.9828,4.230171\n343.5134,4.201466\n344.0031,4.169670\n344.4679,4.134581\n344.9235,4.095958\n345.3857,4.053511\n345.8704,4.006900\n346.3934,3.955729\n346.9705,3.899546\n347.6176,3.837848\n348.3504,3.770100\n349.1847,3.695801\n349.1847,3.695801\n350.3147,3.647089\n351.6628,3.589027\n353.0952,3.516322\n##END=\n'