b'##TITLE=Tetrachloroethylene\n##JCAMP-DX=4.24\n##DATA TYPE=UV/VIS SPECTRUM\n##ORIGIN=INSTITUTE OF ENERGY PROBLEMS OF CHEMICAL PHYSICS, RAS\n##OWNER=INEP CP RAS, NIST OSRD\nCollection (C) 2007 copyright by the U.S. Secretary of Commerce\non behalf of the United States of America. All rights reserved.\n##CAS REGISTRY NO=127-18-4\n##MOLFORM=C2Cl4\n##MP=- 22.3\n##BP=121.3\n##SOURCE REFERENCE=RAS UV No. 10176\n##$NIST SQUIB=1950LAC/PAR5486\n##$NIST SOURCE=TYUGLMTE\n##SPECTROMETER/DATA SYSTEM=Beckman DU\n##XUNITS=Wavelength (nm)\n##YUNITS=Logarithm epsilon\n##XFACTOR=1.0\n##YFACTOR=1.0\n##FIRSTX=263.16\n##LASTX=280.51\n##FIRSTY=1.648\n##MAXX=280.51\n##MINX=263.16\n##MAXY=1.648\n##MINY=-0.194\n##NPOINTS=53\n##$REF AUTHOR=Lacher, J.R.; Park, J.D.\n##$REF JOURNAL=J. Am. Chem. Soc.\n##$REF VOLUME=72\n##$REF PAGE=5486\n##$REF DATE=1950\n##XYPOINTS=(XY..XY)\n263.16,1.648\n263.30,1.626\n263.37,1.617\n263.44,1.608\n263.51,1.598\n263.58,1.590\n263.68,1.578\n263.76,1.567\n263.86,1.553\n263.98,1.538\n264.13,1.519\n264.26,1.504\n264.40,1.488\n264.52,1.476\n264.62,1.466\n264.72,1.458\n264.83,1.447\n264.97,1.434\n265.11,1.420\n265.29,1.405\n265.45,1.392\n265.61,1.378\n265.81,1.361\n265.99,1.347\n266.16,1.331\n266.38,1.310\n266.52,1.295\n266.66,1.279\n266.87,1.254\n267.08,1.232\n267.26,1.213\n267.51,1.187\n267.71,1.166\n267.97,1.138\n268.22,1.109\n268.51,1.080\n268.73,1.054\n268.99,1.023\n269.40,0.977\n269.81,0.938\n270.24,0.893\n270.68,0.844\n271.20,0.791\n271.71,0.732\n272.30,0.668\n273.04,0.592\n273.86,0.513\n274.73,0.424\n275.73,0.329\n276.80,0.222\n278.01,0.099\n279.26,-0.037\n280.51,-0.194\n##END=\n'