b'##TITLE=1,2,3-Trithiane, 5,5-dimethyl-\n##JCAMP-DX=4.24\n##DATA TYPE=UV/VIS SPECTRUM\n##ORIGIN=INSTITUTE OF ENERGY PROBLEMS OF CHEMICAL PHYSICS, RAS\n##OWNER=INEP CP RAS, NIST OSRD\nCollection (C) 2007 copyright by the U.S. Secretary of Commerce\non behalf of the United States of America. All rights reserved.\n##CAS REGISTRY NO=13005-81-7\n##MOLFORM=C5H10S3\n##SOURCE REFERENCE=RAS UV No. 13255\n##$NIST SQUIB=1962DED/1418\n##$NIST SOURCE=TYUGLMTE\n##SPECTROMETER/DATA SYSTEM=unknown\n##XUNITS=Wavelength (nm)\n##YUNITS=Logarithm epsilon\n##XFACTOR=1.0\n##YFACTOR=1.0\n##FIRSTX=232.89\n##LASTX=329.29\n##FIRSTY=3.071\n##MAXX=329.29\n##MINX=232.89\n##MAXY=3.173\n##MINY=2.247\n##NPOINTS=61\n##$REF AUTHOR=Deduchi, Y.; et al.\n##$REF JOURNAL=J. Pharm Soc. Japan.\n##$REF VOLUME=82\n##$REF PAGE=1418\n##$REF DATE=1962\n##XYPOINTS=(XY..XY)\n232.89,3.071\n234.62,3.053\n236.36,3.032\n238.38,3.018\n240.40,3.000\n242.99,3.000\n245.59,3.009\n247.61,3.027\n249.34,3.047\n250.79,3.068\n252.52,3.088\n254.25,3.109\n255.98,3.126\n258.00,3.144\n259.73,3.161\n262.04,3.170\n264.64,3.173\n267.24,3.164\n269.26,3.150\n271.28,3.132\n272.72,3.112\n274.16,3.088\n275.61,3.068\n277.05,3.047\n277.92,3.024\n279.65,3.003\n281.38,2.983\n282.82,2.962\n284.55,2.942\n286.29,2.924\n288.02,2.906\n290.04,2.889\n292.06,2.874\n294.08,2.857\n296.10,2.839\n297.83,2.818\n299.56,2.798\n301.00,2.777\n303.02,2.751\n304.47,2.728\n306.20,2.710\n307.64,2.687\n309.37,2.666\n310.82,2.643\n311.97,2.619\n313.13,2.596\n314.57,2.575\n315.72,2.552\n316.88,2.528\n318.03,2.505\n318.90,2.481\n320.05,2.458\n321.21,2.435\n322.65,2.411\n323.52,2.388\n324.67,2.364\n325.54,2.341\n326.40,2.317\n327.27,2.294\n328.42,2.270\n329.29,2.247\n##END=\n'