b'##TITLE=Chromium hexacarbonyl\n##JCAMP-DX=4.24\n##DATA TYPE=UV/VIS SPECTRUM\n##ORIGIN=INSTITUTE OF ENERGY PROBLEMS OF CHEMICAL PHYSICS, RAS\n##OWNER=INEP CP RAS, NIST OSRD\nCollection (C) 2007 copyright by the U.S. Secretary of Commerce\non behalf of the United States of America. All rights reserved.\n##CAS REGISTRY NO=13007-92-6\n##MOLFORM=C6CrO6\n##MP=151-152\n##BP=sub\n##SOURCE REFERENCE=RAS UV No. 13259\n##$NIST SQUIB=1962LUN/CAI1167\n##$NIST SOURCE=TYUGLMTE\n##SPECTROMETER/DATA SYSTEM=Cary Model 10-S\n##XUNITS=Wavelength (nm)\n##YUNITS=Logarithm epsilon\n##XFACTOR=1.0\n##YFACTOR=1.0\n##FIRSTX=214.18\n##LASTX=298.86\n##FIRSTY=4.343\n##MAXX=298.86\n##MINX=214.18\n##MAXY=4.734\n##MINY=3.388\n##NPOINTS=224\n##$REF AUTHOR=Lundquist, R.T.; Cais, M.\n##$REF JOURNAL=J. Org. Chem.\n##$REF VOLUME=27\n##$REF PAGE=1167\n##$REF DATE=1962\n##XYPOINTS=(XY..XY)\n214.18,4.343\n214.56,4.367\n214.94,4.388\n215.32,4.413\n215.70,4.430\n216.08,4.445\n216.46,4.462\n216.84,4.475\n217.22,4.485\n217.59,4.502\n217.97,4.515\n218.35,4.523\n218.73,4.536\n219.11,4.546\n219.49,4.559\n219.87,4.570\n220.25,4.580\n220.63,4.591\n221.01,4.600\n221.40,4.609\n221.78,4.618\n222.14,4.631\n222.53,4.641\n222.91,4.652\n223.29,4.663\n223.67,4.675\n224.05,4.686\n224.43,4.703\n224.81,4.713\n225.19,4.720\n225.57,4.724\n225.95,4.728\n226.33,4.728\n226.71,4.728\n227.09,4.730\n227.47,4.732\n227.85,4.732\n228.23,4.734\n228.61,4.732\n228.99,4.732\n229.37,4.730\n229.75,4.726\n230.13,4.724\n230.51,4.724\n230.89,4.722\n231.27,4.715\n231.65,4.713\n232.03,4.707\n232.41,4.703\n232.78,4.694\n233.16,4.690\n233.54,4.682\n233.92,4.673\n234.30,4.669\n234.68,4.661\n235.06,4.654\n235.44,4.644\n235.82,4.635\n236.15,4.628\n236.60,4.617\n236.88,4.610\n237.31,4.598\n237.72,4.582\n238.11,4.571\n238.48,4.561\n238.86,4.548\n239.20,4.539\n239.62,4.527\n240.00,4.513\n240.32,4.500\n240.62,4.489\n240.97,4.476\n241.52,4.453\n241.90,4.434\n242.28,4.413\n242.65,4.397\n243.04,4.382\n243.42,4.369\n243.80,4.350\n244.18,4.335\n244.56,4.320\n244.94,4.305\n245.32,4.291\n245.70,4.274\n246.08,4.263\n246.46,4.244\n246.84,4.231\n247.22,4.217\n247.59,4.206\n247.97,4.191\n248.21,4.181\n248.63,4.165\n249.08,4.148\n249.50,4.136\n249.87,4.126\n250.25,4.117\n250.63,4.109\n251.01,4.105\n251.39,4.096\n251.77,4.088\n252.15,4.083\n252.53,4.077\n252.91,4.071\n253.29,4.064\n253.67,4.060\n254.05,4.052\n254.43,4.048\n254.81,4.041\n255.19,4.037\n255.57,4.029\n255.95,4.022\n256.33,4.018\n256.71,4.012\n257.09,4.007\n257.47,4.001\n257.85,3.997\n258.23,3.993\n258.61,3.988\n258.99,3.986\n259.37,3.986\n259.75,3.984\n260.13,3.982\n260.51,3.980\n260.89,3.978\n261.27,3.978\n261.65,3.978\n262.03,3.978\n262.41,3.978\n262.78,3.978\n263.16,3.978\n263.54,3.978\n263.92,3.980\n264.30,3.982\n264.68,3.984\n265.06,3.984\n265.44,3.986\n265.82,3.986\n266.20,3.988\n266.58,3.988\n266.96,3.993\n267.34,3.995\n267.72,3.997\n268.10,3.997\n268.48,3.999\n268.86,4.001\n269.24,4.005\n269.62,4.005\n270.00,4.007\n270.38,4.007\n270.76,4.007\n271.14,4.007\n271.52,4.007\n271.90,4.007\n272.28,4.005\n272.66,4.005\n273.04,4.001\n273.42,3.999\n273.80,3.997\n274.18,3.995\n274.56,3.988\n274.94,3.978\n275.32,3.969\n275.70,3.963\n276.08,3.952\n276.46,3.944\n276.84,3.933\n277.22,3.929\n277.59,3.921\n277.97,3.910\n278.35,3.902\n278.73,3.895\n279.11,3.883\n279.49,3.872\n279.81,3.865\n280.25,3.849\n280.64,3.841\n281.01,3.830\n281.39,3.819\n281.77,3.809\n282.15,3.798\n282.53,3.790\n282.91,3.785\n283.29,3.781\n283.67,3.777\n284.05,3.773\n284.43,3.762\n284.81,3.752\n285.19,3.728\n285.57,3.718\n285.95,3.705\n286.33,3.690\n286.71,3.684\n287.09,3.671\n287.47,3.657\n287.85,3.644\n288.23,3.633\n288.61,3.621\n288.99,3.612\n289.37,3.597\n289.75,3.591\n290.13,3.574\n290.51,3.564\n290.89,3.553\n291.27,3.542\n291.65,3.530\n292.03,3.521\n292.41,3.511\n292.78,3.500\n293.16,3.492\n293.54,3.483\n293.92,3.481\n294.30,3.462\n294.68,3.458\n295.06,3.449\n295.44,3.441\n295.82,3.435\n296.20,3.430\n296.58,3.422\n296.96,3.418\n297.34,3.411\n297.72,3.403\n298.10,3.399\n298.48,3.392\n298.86,3.388\n##END=\n'