b'##TITLE=Manganese, pentacarbonyl(trifluoromethyl)-\n##JCAMP-DX=4.24\n##DATA TYPE=UV/VIS SPECTRUM\n##ORIGIN=INSTITUTE OF ENERGY PROBLEMS OF CHEMICAL PHYSICS, RAS\n##OWNER=INEP CP RAS, NIST OSRD\nCollection (C) 2007 copyright by the U.S. Secretary of Commerce\non behalf of the United States of America. All rights reserved.\n##CAS REGISTRY NO=13601-14-4\n##MOLFORM=C6F3MnO5\n##SOURCE REFERENCE=RAS UV No. 13260\n##$NIST SQUIB=1962LUN/CAI1167\n##$NIST SOURCE=TYUGLMTE\n##SPECTROMETER/DATA SYSTEM=Cary Model 10-S\n##XUNITS=Wavelength (nm)\n##YUNITS=Logarithm epsilon\n##XFACTOR=1.0\n##YFACTOR=1.0\n##FIRSTX=212.91\n##LASTX=297.15\n##FIRSTY=4.453\n##MAXX=297.15\n##MINX=212.91\n##MAXY=4.475\n##MINY=3.271\n##NPOINTS=112\n##$REF AUTHOR=Lundquist, R.T.; Cais, M.\n##$REF JOURNAL=J. Org. Chem.\n##$REF VOLUME=27\n##$REF PAGE=1167\n##$REF DATE=1962\n##XYPOINTS=(XY..XY)\n212.91,4.453\n213.18,4.455\n213.44,4.456\n213.71,4.458\n213.97,4.459\n214.24,4.461\n214.50,4.462\n214.77,4.463\n215.03,4.465\n215.30,4.466\n215.56,4.468\n215.83,4.469\n216.09,4.471\n216.36,4.472\n216.62,4.473\n216.89,4.475\n218.48,4.469\n219.27,4.463\n220.07,4.461\n220.86,4.449\n221.66,4.435\n222.45,4.415\n223.25,4.398\n224.04,4.388\n224.83,4.368\n225.63,4.352\n226.42,4.325\n227.22,4.305\n228.01,4.287\n228.81,4.263\n229.60,4.246\n230.40,4.226\n231.19,4.202\n231.99,4.177\n232.78,4.153\n233.58,4.130\n234.37,4.108\n235.17,4.092\n235.96,4.078\n236.75,4.065\n237.55,4.051\n238.34,4.020\n239.14,3.992\n239.93,3.968\n240.73,3.950\n241.52,3.924\n242.32,3.913\n243.11,3.893\n243.91,3.869\n244.70,3.852\n245.50,3.827\n246.29,3.813\n247.09,3.793\n249.47,3.749\n250.26,3.729\n251.06,3.726\n251.85,3.718\n252.65,3.716\n253.44,3.711\n254.24,3.702\n255.03,3.697\n255.83,3.692\n257.42,3.678\n258.21,3.677\n259.01,3.677\n259.80,3.671\n260.60,3.670\n261.39,3.667\n262.19,3.664\n262.98,3.660\n263.77,3.657\n264.57,3.651\n265.36,3.648\n266.16,3.644\n266.95,3.641\n267.75,3.635\n268.54,3.630\n269.34,3.623\n270.13,3.617\n270.93,3.608\n271.72,3.600\n272.52,3.588\n273.31,3.581\n274.11,3.567\n274.90,3.559\n275.70,3.546\n276.49,3.534\n277.28,3.527\n278.08,3.520\n278.87,3.507\n279.67,3.496\n280.46,3.485\n281.26,3.470\n282.05,3.459\n282.85,3.452\n283.64,3.440\n284.44,3.432\n285.23,3.422\n286.82,3.395\n287.62,3.381\n288.41,3.369\n289.21,3.358\n290.00,3.348\n290.79,3.335\n291.59,3.327\n292.38,3.315\n293.18,3.307\n293.97,3.295\n294.77,3.287\n295.56,3.280\n296.36,3.273\n297.15,3.271\n##END=\n'