b'##TITLE=Borazine,2,4,6-trifluoro-1,3,5-trimethyl-\n##JCAMP-DX=4.24\n##DATA TYPE=UV/VIS SPECTRUM\n##ORIGIN=INSTITUTE OF ENERGY PROBLEMS OF CHEMICAL PHYSICS, RAS\n##OWNER=INEP CP RAS, NIST OSRD\nCollection (C) 2007 copyright by the U.S. Secretary of Commerce\non behalf of the United States of America. All rights reserved.\n##CAS REGISTRY NO=13722-15-1\n##MOLFORM=C3H9B3F3N3\n##SOURCE REFERENCE=RAS UV No. 16201\n##$NIST SQUIB=1972KRO/1585\n##$NIST SOURCE=TYUGLMTE\n##SPECTROMETER/DATA SYSTEM=McPherson 225\n##XUNITS=Wavelength (nm)\n##YUNITS=Logarithm epsilon\n##XFACTOR=1.0\n##YFACTOR=1.0\n##FIRSTX=123.12\n##LASTX=206.64\n##FIRSTY=4.318\n##MAXX=206.64\n##MINX=123.12\n##MAXY=4.325\n##MINY=1.661\n##NPOINTS=298\n##$REF AUTHOR=Kroner, J.; et al.\n##$REF JOURNAL=Tetrahedron\n##$REF VOLUME=28\n##$REF PAGE=1585\n##$REF DATE=1972\n##XYPOINTS=(XY..XY)\n123.12,4.318\n123.17,4.318\n123.23,4.315\n123.39,4.311\n123.55,4.308\n123.71,4.301\n123.87,4.298\n124.03,4.291\n124.19,4.287\n124.36,4.284\n124.52,4.280\n124.68,4.277\n124.85,4.270\n125.01,4.266\n125.18,4.263\n125.34,4.256\n125.51,4.249\n125.67,4.246\n126.01,4.235\n126.17,4.232\n126.51,4.225\n126.68,4.218\n126.85,4.215\n127.02,4.211\n127.19,4.204\n127.36,4.201\n127.53,4.197\n127.70,4.194\n127.87,4.187\n128.05,4.183\n128.22,4.176\n128.39,4.173\n128.57,4.166\n128.74,4.159\n129.09,4.149\n129.27,4.145\n129.44,4.138\n129.62,4.131\n129.80,4.128\n129.97,4.121\n130.15,4.114\n130.33,4.111\n130.51,4.104\n130.69,4.100\n130.87,4.097\n131.05,4.086\n131.23,4.083\n131.41,4.080\n131.60,4.076\n131.78,4.069\n131.96,4.066\n132.14,4.066\n132.33,4.066\n132.51,4.066\n132.70,4.066\n132.88,4.069\n133.07,4.069\n133.26,4.073\n133.45,4.073\n133.63,4.073\n133.82,4.066\n134.01,4.073\n134.20,4.073\n134.39,4.073\n134.58,4.073\n134.77,4.069\n134.96,4.069\n135.15,4.069\n135.35,4.069\n135.54,4.069\n135.73,4.069\n135.93,4.069\n136.12,4.069\n136.32,4.069\n136.52,4.069\n136.71,4.069\n136.91,4.069\n137.11,4.066\n137.31,4.062\n137.50,4.062\n137.90,4.066\n138.10,4.069\n138.31,4.073\n138.51,4.083\n138.71,4.090\n138.91,4.097\n139.12,4.100\n139.32,4.107\n139.52,4.114\n139.73,4.118\n139.94,4.121\n140.14,4.128\n140.35,4.128\n140.56,4.135\n140.77,4.135\n140.98,4.138\n141.18,4.142\n141.40,4.145\n141.61,4.145\n142.03,4.149\n142.24,4.152\n142.46,4.152\n142.67,4.152\n142.88,4.152\n143.10,4.152\n143.32,4.159\n143.53,4.163\n143.75,4.166\n143.97,4.170\n144.19,4.173\n144.41,4.180\n144.63,4.183\n144.85,4.187\n145.07,4.187\n145.29,4.183\n145.51,4.176\n145.74,4.176\n145.96,4.176\n146.18,4.173\n146.41,4.173\n146.64,4.170\n146.86,4.170\n147.09,4.166\n147.55,4.176\n147.78,4.180\n148.01,4.183\n148.24,4.190\n148.47,4.190\n148.70,4.190\n148.94,4.183\n149.41,4.176\n149.64,4.180\n149.88,4.180\n150.11,4.180\n150.35,4.183\n150.59,4.183\n150.83,4.183\n151.07,4.183\n151.55,4.190\n151.79,4.194\n152.04,4.197\n152.28,4.204\n152.53,4.211\n152.77,4.218\n153.02,4.225\n153.27,4.232\n153.51,4.235\n153.76,4.242\n154.01,4.249\n154.26,4.253\n154.51,4.260\n154.76,4.263\n155.02,4.266\n155.27,4.273\n155.52,4.280\n155.78,4.284\n156.29,4.291\n156.55,4.291\n156.81,4.291\n157.07,4.287\n157.33,4.298\n157.59,4.298\n157.85,4.308\n158.12,4.318\n158.38,4.325\n158.64,4.325\n158.91,4.325\n159.18,4.325\n159.44,4.325\n159.71,4.318\n159.98,4.311\n160.25,4.301\n160.52,4.294\n160.79,4.287\n161.07,4.280\n161.34,4.270\n161.61,4.273\n161.89,4.253\n162.17,4.242\n162.44,4.235\n162.72,4.225\n163.00,4.215\n163.28,4.204\n163.56,4.194\n163.85,4.183\n164.13,4.176\n164.41,4.166\n164.70,4.152\n164.98,4.138\n165.27,4.121\n165.56,4.107\n165.85,4.097\n166.14,4.080\n166.43,4.066\n166.72,4.055\n167.02,4.052\n167.31,4.028\n167.61,4.014\n167.90,4.003\n168.20,3.986\n168.50,3.972\n168.80,3.958\n169.10,3.948\n169.40,3.934\n170.31,3.900\n170.62,3.882\n170.93,3.865\n171.23,3.851\n171.54,3.834\n171.85,3.820\n172.17,3.799\n172.48,3.796\n172.79,3.785\n173.42,3.768\n173.74,3.758\n174.06,3.747\n174.38,3.744\n174.70,3.737\n175.35,3.720\n175.67,3.695\n176.00,3.671\n176.32,3.644\n176.65,3.616\n176.98,3.561\n177.31,3.505\n177.64,3.460\n177.97,3.401\n178.31,3.356\n178.64,3.315\n178.98,3.270\n179.32,3.228\n179.66,3.183\n180.00,3.138\n180.34,3.097\n180.68,3.048\n181.03,3.014\n181.38,2.983\n181.72,2.952\n182.07,2.917\n182.42,2.886\n182.77,2.851\n183.12,2.810\n183.48,2.803\n183.83,2.792\n184.19,2.779\n184.55,2.765\n184.91,2.751\n185.27,2.737\n185.63,2.723\n185.99,2.720\n186.36,2.716\n186.73,2.713\n187.09,2.709\n187.46,2.709\n187.83,2.702\n188.58,2.702\n188.96,2.702\n189.33,2.706\n189.71,2.706\n190.09,2.709\n190.47,2.709\n191.24,2.713\n191.63,2.713\n192.01,2.716\n192.40,2.716\n192.79,2.713\n193.19,2.713\n193.58,2.716\n193.98,2.716\n194.37,2.713\n194.77,2.713\n195.17,2.709\n195.57,2.706\n195.98,2.702\n196.38,2.702\n196.79,2.699\n197.61,2.685\n198.02,2.671\n198.44,2.664\n198.85,2.654\n199.27,2.644\n199.69,2.626\n200.11,2.609\n200.53,2.581\n200.96,2.550\n201.38,2.516\n201.81,2.484\n202.24,2.450\n202.67,2.408\n203.10,2.322\n203.54,2.239\n203.98,2.173\n204.42,2.107\n204.86,2.041\n205.30,1.952\n205.75,1.882\n206.19,1.782\n206.64,1.661\n##END=\n'