b'##TITLE=2-Thiouracil\n##JCAMP-DX=4.24\n##DATA TYPE=UV/VIS SPECTRUM\n##ORIGIN=INSTITUTE OF ENERGY PROBLEMS OF CHEMICAL PHYSICS, RAS\n##OWNER=INEP CP RAS, NIST OSRD\nCollection (C) 2007 copyright by the U.S. Secretary of Commerce\non behalf of the United States of America. All rights reserved.\n##CAS REGISTRY NO=141-90-2\n##MOLFORM=C4H4N2OS\n##MP=> 340 dec\n##SOURCE REFERENCE=RAS UV No. 12011\n##$NIST SQUIB=1946ELI/HIT2137\n##$NIST SOURCE=TYUGLMTE\n##SPECTROMETER/DATA SYSTEM=Baush and Lomb spectrograph\n##XUNITS=Wavelength (nm)\n##YUNITS=Logarithm epsilon\n##XFACTOR=1.0\n##YFACTOR=1.0\n##FIRSTX=252.95\n##LASTX=302.84\n##FIRSTY=3.717\n##MAXX=302.84\n##MINX=252.95\n##MAXY=4.031\n##MINY=3.71\n##NPOINTS=59\n##$REF AUTHOR=Elion, G.B.; Hitchings, G.H.\n##$REF JOURNAL=J. Am. Chem. Soc.\n##$REF VOLUME=68\n##$REF PAGE=2137\n##$REF DATE=1946\n##XYPOINTS=(XY..XY)\n252.95,3.717\n253.21,3.724\n254.00,3.748\n254.84,3.773\n255.68,3.799\n256.53,3.824\n257.50,3.852\n258.21,3.868\n259.05,3.888\n260.12,3.910\n260.74,3.922\n261.54,3.933\n262.42,3.945\n263.26,3.959\n264.11,3.971\n264.95,3.982\n265.79,3.990\n266.63,3.999\n267.45,4.007\n268.32,4.014\n269.18,4.020\n269.93,4.025\n270.82,4.028\n271.66,4.030\n272.53,4.031\n273.37,4.031\n274.21,4.031\n275.14,4.030\n275.89,4.029\n277.58,4.024\n278.42,4.023\n279.26,4.020\n280.11,4.018\n281.79,4.012\n282.63,4.009\n283.47,4.006\n284.32,4.003\n285.17,3.999\n286.00,3.994\n286.84,3.990\n287.68,3.986\n288.54,3.980\n289.37,3.973\n290.21,3.963\n291.14,3.949\n292.11,3.935\n292.89,3.923\n293.58,3.912\n294.48,3.899\n295.26,3.888\n296.07,3.873\n297.13,3.851\n297.79,3.832\n298.63,3.811\n299.47,3.786\n300.32,3.760\n301.08,3.743\n302.00,3.723\n302.84,3.710\n##END=\n'