b'##TITLE=1-(methylthio)-2-propanone\n##JCAMP-DX=4.24\n##DATA TYPE=UV/VIS SPECTRUM\n##ORIGIN=INSTITUTE OF ENERGY PROBLEMS OF CHEMICAL PHYSICS, RAS\n##OWNER=INEP CP RAS, NIST OSRD\nCollection (C) 2007 copyright by the U.S. Secretary of Commerce\non behalf of the United States of America. All rights reserved.\n##CAS REGISTRY NO=14109-72-9\n##MOLFORM=C4H8OS\n##MP=152.5-153\n##SOURCE REFERENCE=RAS UV No. 22743\n##$NIST SQUIB=1976OLI/3026\n##$NIST SOURCE=TYUGLMTE\n##SPECTROMETER/DATA SYSTEM=Cary 14\n##XUNITS=Wavelength (nm)\n##YUNITS=Logarithm epsilon\n##XFACTOR=1.0\n##YFACTOR=1.0\n##FIRSTX=226.025\n##LASTX=326.356\n##FIRSTY=2.644\n##MAXX=326.356\n##MINX=226.025\n##MAXY=2.644\n##MINY=1.834\n##NPOINTS=72\n##$REF AUTHOR=Olivato, P.R.; et al.\n##$REF JOURNAL=Can. J. Chem.\n##$REF VOLUME=54\n##$REF PAGE=3026\n##$REF DATE=1976\n##XYPOINTS=(XY..XY)\n226.025,2.644\n227.051,2.564\n228.087,2.526\n229.132,2.502\n229.146,2.501\n230.201,2.485\n231.265,2.479\n232.340,2.480\n233.425,2.488\n234.465,2.502\n235.569,2.519\n236.685,2.535\n237.810,2.548\n238.947,2.559\n240.094,2.566\n241.253,2.571\n242.422,2.573\n243.600,2.572\n244.793,2.566\n245.997,2.556\n247.214,2.541\n248.442,2.522\n249.683,2.497\n250.936,2.470\n250.989,2.469\n252.255,2.434\n253.534,2.395\n254.826,2.352\n256.131,2.305\n257.450,2.256\n258.783,2.206\n260.129,2.154\n261.490,2.104\n262.864,2.057\n264.254,2.014\n265.658,1.978\n267.077,1.951\n268.511,1.933\n269.961,1.926\n271.426,1.929\n272.908,1.942\n274.405,1.964\n275.912,1.990\n277.443,2.022\n278.991,2.055\n280.556,2.090\n282.139,2.123\n283.740,2.156\n285.360,2.187\n286.998,2.216\n288.655,2.244\n290.331,2.269\n292.026,2.290\n293.742,2.309\n295.478,2.322\n297.234,2.330\n297.253,2.332\n299.031,2.345\n300.830,2.351\n302.651,2.350\n304.494,2.342\n306.360,2.328\n308.248,2.310\n310.160,2.287\n312.096,2.261\n314.057,2.229\n316.042,2.189\n318.052,2.140\n320.088,2.079\n322.151,2.002\n324.240,1.914\n326.356,1.834\n##END=\n'