b'##TITLE=2H-Pyran, tetrahydro-\n##JCAMP-DX=4.24\n##DATA TYPE=UV/VIS SPECTRUM\n##ORIGIN=INSTITUTE OF ENERGY PROBLEMS OF CHEMICAL PHYSICS, RAS\n##OWNER=INEP CP RAS, NIST OSRD\nCollection (C) 2007 copyright by the U.S. Secretary of Commerce\non behalf of the United States of America. All rights reserved.\n##CAS REGISTRY NO=142-68-7\n##MOLFORM=C5H10O\n##MP=-45\n##BP=88\n##SOURCE REFERENCE=RAS UV No. 4887\n##$NIST SQUIB=1951PIC/HOE4865-4869\n##$NIST SOURCE=TSGMTE\n##SPECTROMETER/DATA SYSTEM=Hilger fluorite prism spectrograph\n##XUNITS=Wavelength (nm)\n##YUNITS=Logarithm epsilon\n##XFACTOR=1.000000\n##YFACTOR=1.000000\n##FIRSTX=194.0582\n##LASTX=168.1508\n##FIRSTY=2.41568\n##MAXX=194.058\n##MINX=168.151\n##MAXY=3.80695\n##MINY=2.41568\n##NPOINTS=763\n##$REF AUTHOR=Pickett, L.W.; Hoeflich, N.J.; Liu, T.-C.\n##$REF TITLE=The vacuum ultraviolet absorption spectra of cyclic compounds. II. Tetrahydrofuran, tetrahydropyran, 1,4-dioxane and furan\n##$REF JOURNAL=J. Am. Chem. Soc.\n##$REF VOLUME=73\n##$REF PAGE=4865-4869\n##$REF DATE=1951\n##XYPOINTS=(XY..XY)\n194.0582,2.415685\n193.9808,2.436922\n193.8870,2.463990\n193.7616,2.494506\n193.7616,2.494506\n193.7411,2.496453\n193.7198,2.498493\n193.6967,2.500577\n193.6967,2.500577\n193.6654,2.500810\n193.6333,2.501135\n193.5993,2.501506\n193.5993,2.501506\n193.5186,2.473452\n193.4669,2.459174\n193.3999,2.446432\n193.3999,2.446432\n193.3575,2.445886\n193.3142,2.445245\n193.2693,2.444554\n193.2693,2.444554\n193.2495,2.445376\n193.2288,2.446197\n193.2064,2.447016\n193.2064,2.447016\n193.1048,2.468203\n193.0487,2.481617\n192.9902,2.498757\n192.9902,2.498757\n192.9631,2.513383\n192.9596,2.710480\n192.9596,2.710480\n192.9495,2.682535\n192.9399,2.654591\n192.9344,2.528054\n192.9307,2.626647\n192.9219,2.598704\n192.9174,2.714418\n192.9133,2.570761\n192.9047,2.542819\n192.9047,2.542819\n192.8661,2.717541\n192.7619,2.722526\n192.7619,2.722526\n192.7217,2.743074\n192.6807,2.763620\n192.6380,2.784164\n192.6380,2.784164\n192.6111,2.784347\n192.5841,2.784577\n192.5571,2.784902\n192.5571,2.784902\n192.5163,2.781872\n192.4755,2.778841\n192.4348,2.775811\n192.4348,2.775811\n192.3775,2.751887\n192.3203,2.724465\n192.2642,2.696372\n192.2101,2.670433\n192.1590,2.649473\n192.1590,2.649473\n192.1323,2.649436\n192.1138,2.639640\n192.1127,2.641975\n192.1117,2.644310\n192.1106,2.646645\n192.1056,2.649399\n192.0789,2.649362\n192.0789,2.649362\n192.0038,2.659351\n191.9521,2.664510\n191.8794,2.669262\n191.8794,2.669262\n191.8703,2.680719\n191.8604,2.692175\n191.8488,2.703629\n191.8488,2.703629\n191.8280,2.705087\n191.8055,2.706542\n191.7821,2.707996\n191.7821,2.707996\n191.7753,2.714367\n191.7678,2.706064\n191.7677,2.720783\n191.7583,2.727292\n191.7457,2.704822\n191.7244,2.703675\n191.7047,2.702578\n191.7047,2.702578\n191.6736,2.687462\n191.6434,2.672394\n191.6148,2.657423\n191.6148,2.657423\n191.5853,2.655266\n191.5559,2.653155\n191.5265,2.651140\n191.5265,2.651140\n191.5217,2.645193\n191.5177,2.639296\n191.5154,2.633495\n191.4916,2.652790\n191.4469,2.665298\n191.3917,2.684259\n191.3477,2.695069\n191.3477,2.695069\n191.3417,2.699733\n191.3349,2.704397\n191.3263,2.709057\n191.2982,2.695849\n191.2982,2.695849\n191.2655,2.695174\n191.2474,2.696902\n191.2346,2.694548\n191.2044,2.694018\n191.2044,2.694018\n191.1949,2.698048\n191.1944,2.691251\n191.1853,2.688532\n191.1778,2.685909\n191.1416,2.699240\n191.1416,2.699240\n191.1049,2.706103\n191.0770,2.713828\n191.0340,2.729037\n191.0340,2.729037\n190.9459,2.731737\n190.8570,2.734531\n190.7665,2.737369\n190.7665,2.737369\n190.7608,2.739335\n190.7533,2.741394\n190.7450,2.743498\n190.7180,2.736451\n190.7033,2.735580\n190.6887,2.734710\n190.6740,2.733840\n190.6740,2.733840\n190.6270,2.716702\n190.5883,2.705618\n190.5497,2.692033\n190.5415,2.710713\n190.5226,2.719403\n190.5038,2.728139\n190.4849,2.736971\n190.4849,2.736971\n190.4796,2.757566\n190.4753,2.778163\n190.4726,2.798762\n190.4726,2.798762\n190.4416,2.800693\n190.4097,2.802717\n190.3762,2.804785\n190.3762,2.804785\n190.3049,2.804684\n190.2328,2.804582\n190.1592,2.804478\n190.1592,2.804478\n190.1132,2.829909\n190.0656,2.855384\n190.0172,2.880953\n190.0172,2.880953\n189.9966,2.882898\n189.9742,2.884936\n189.9511,2.887019\n189.9511,2.887019\n189.9431,2.896361\n189.9343,2.905749\n189.9238,2.915229\n189.9071,2.885257\n189.8902,2.883746\n189.8750,2.882238\n189.8606,2.880730\n189.8606,2.880730\n189.8348,2.865621\n189.8106,2.850561\n189.7872,2.835596\n189.7872,2.835596\n189.7669,2.833451\n189.7483,2.831356\n189.7304,2.829356\n189.7304,2.829356\n189.6790,2.827803\n189.6276,2.826298\n189.5761,2.824887\n189.5761,2.824887\n189.5662,2.813624\n189.5562,2.802407\n189.5463,2.791285\n189.5463,2.791285\n189.5252,2.763005\n189.5247,2.789987\n189.5131,2.771122\n189.5039,2.788738\n189.4993,2.779331\n189.4847,2.787586\n189.4847,2.787586\n189.4565,2.784147\n189.4558,2.785845\n189.4551,2.787544\n189.4543,2.789242\n189.4543,2.789242\n189.4345,2.789489\n189.4131,2.789828\n189.3908,2.790213\n189.3908,2.790213\n189.3191,2.800140\n189.2776,2.804872\n189.2309,2.808463\n189.2309,2.808463\n189.1786,2.854632\n189.1440,2.881670\n189.1254,2.898934\n189.1212,2.915781\n189.0699,2.889369\n189.0445,2.888483\n189.0200,2.887598\n188.9971,2.886716\n188.9971,2.886716\n188.9604,2.871858\n188.9252,2.857096\n188.8909,2.842383\n188.8909,2.842383\n188.8260,2.838954\n188.7611,2.835620\n188.6962,2.832332\n188.6962,2.832332\n188.6796,2.827990\n188.6596,2.823642\n188.6443,2.816327\n188.6069,2.826044\n188.5715,2.828966\n188.5344,2.831886\n188.4965,2.834805\n188.4965,2.834805\n188.4822,2.865441\n188.4671,2.882766\n188.4382,2.901628\n188.4382,2.901628\n188.4149,2.906456\n188.4013,2.911722\n188.3854,2.921942\n188.3586,2.907672\n188.3441,2.907289\n188.3295,2.907001\n188.3149,2.906759\n188.3149,2.906759\n188.2723,2.900145\n188.2470,2.894877\n188.2174,2.886440\n188.1621,2.870429\n188.1601,2.875099\n188.1580,2.879769\n188.1560,2.884439\n188.1560,2.884439\n188.1094,2.884788\n188.0644,2.885093\n188.0203,2.885304\n188.0203,2.885304\n187.9845,2.883765\n187.9496,2.882228\n187.9163,2.880692\n187.9163,2.880692\n187.9113,2.877932\n187.9079,2.875221\n187.9052,2.872605\n187.9052,2.872605\n187.8812,2.869510\n187.8583,2.867880\n187.8223,2.853156\n187.8205,2.857464\n187.8186,2.861867\n187.8167,2.866316\n187.8167,2.866316\n187.7688,2.867309\n187.7406,2.879587\n187.7108,2.891863\n187.6801,2.904138\n187.6801,2.904138\n187.6542,2.905225\n187.6282,2.906406\n187.6022,2.907635\n187.6022,2.907635\n187.4629,2.907392\n187.4037,2.907030\n187.3738,2.906239\n187.3738,2.906239\n187.3725,2.900439\n187.3705,2.894544\n187.3668,2.888599\n187.3430,2.876245\n187.3415,2.879846\n187.3400,2.883400\n187.3385,2.886859\n187.3385,2.886859\n187.2405,2.887250\n187.1824,2.886945\n187.1143,2.885681\n187.1143,2.885681\n187.0390,2.874187\n186.9855,2.866501\n186.9589,2.859752\n186.9266,2.867776\n186.8557,2.881698\n186.7848,2.895667\n186.7139,2.909731\n186.7139,2.909731\n186.5843,2.909540\n186.4548,2.909348\n186.3256,2.909157\n186.3256,2.909157\n186.2829,2.903572\n186.2547,2.897583\n186.2169,2.886057\n186.2169,2.886057\n186.1811,2.886004\n186.1752,2.874525\n186.1657,2.877485\n186.1547,2.880442\n186.1453,2.885951\n186.1428,2.883398\n186.1095,2.885898\n186.1095,2.885898\n186.0587,2.893469\n186.0063,2.901038\n185.9532,2.908605\n185.9532,2.908605\n185.9190,2.910891\n185.8832,2.913174\n185.8467,2.915456\n185.8467,2.915456\n185.8278,2.915428\n185.8073,2.915398\n185.7860,2.915366\n185.7860,2.915366\n185.7603,2.908319\n185.7338,2.901270\n185.7057,2.894219\n185.7057,2.894219\n185.6727,2.893894\n185.6671,2.884391\n185.6554,2.886710\n185.6437,2.889029\n185.6382,2.893473\n185.6321,2.891348\n185.6029,2.893003\n185.6029,2.893003\n185.5682,2.898726\n185.5402,2.901438\n185.4952,2.903463\n185.4952,2.903463\n185.4901,2.906917\n185.4841,2.910464\n185.4766,2.914055\n185.4511,2.907008\n185.4394,2.904324\n185.4171,2.902473\n185.3696,2.889257\n185.3696,2.889257\n185.3682,2.892716\n185.3667,2.896270\n185.3652,2.899870\n185.3652,2.899870\n185.3490,2.887959\n185.3291,2.886710\n185.3144,2.876855\n185.3132,2.879677\n185.3120,2.882594\n185.3108,2.885558\n185.3108,2.885558\n185.2155,2.901346\n185.2132,2.906652\n185.2110,2.911959\n185.2088,2.917266\n185.2088,2.917266\n185.1905,2.918308\n185.1714,2.919397\n185.1507,2.920577\n185.1507,2.920577\n185.1074,2.920025\n185.0625,2.919375\n185.0169,2.918677\n185.0169,2.918677\n184.9897,2.915663\n184.9617,2.912647\n184.9322,2.909629\n184.9322,2.909629\n184.8938,2.908502\n184.8554,2.907327\n184.8171,2.906058\n184.8171,2.906058\n184.7919,2.907090\n184.7667,2.908169\n184.7415,2.909343\n184.7415,2.909343\n184.7086,2.920401\n184.6748,2.931552\n184.6395,2.942749\n184.6395,2.942749\n184.6007,2.942690\n184.5620,2.942632\n184.5233,2.942573\n184.5233,2.942573\n184.4957,2.940825\n184.4674,2.939028\n184.4376,2.937134\n184.4376,2.937134\n184.3776,2.927611\n184.3421,2.922987\n184.3008,2.919298\n184.3008,2.919298\n184.2821,2.919545\n184.2700,2.917552\n184.2618,2.919884\n184.2575,2.913710\n184.2450,2.909868\n184.2407,2.920269\n184.2407,2.920269\n184.2326,2.906026\n184.2267,2.945524\n184.2118,2.970777\n184.1954,2.996028\n184.1954,2.996028\n184.1016,3.020769\n184.0489,3.038255\n183.9924,3.063477\n183.9924,3.063477\n183.9392,3.111605\n183.9041,3.140764\n183.8713,3.162757\n183.8251,3.189390\n183.8251,3.189390\n183.8025,3.193730\n183.7863,3.195577\n183.7628,3.196517\n183.7628,3.196517\n183.7566,3.202667\n183.7497,3.208816\n183.7412,3.214963\n183.7213,3.195392\n183.7055,3.193889\n183.6913,3.192435\n183.6778,3.191077\n183.6778,3.191077\n183.6265,3.166036\n183.5737,3.134727\n183.5231,3.101792\n183.4786,3.071876\n183.4439,3.049621\n183.4228,3.039671\n183.4228,3.039671\n183.3361,3.039176\n183.2494,3.038776\n183.1628,3.038423\n183.1628,3.038423\n183.1394,3.036271\n183.1160,3.034167\n183.0925,3.032156\n183.0506,3.032942\n183.0319,3.033770\n183.0117,3.034644\n182.9906,3.035611\n182.9906,3.035611\n182.9063,3.055722\n182.8220,3.075929\n182.7378,3.096182\n182.7378,3.096182\n182.6934,3.111894\n182.6490,3.127701\n182.6046,3.143555\n182.6046,3.143555\n182.5723,3.197172\n182.5567,3.232391\n182.5519,3.266892\n182.5519,3.254027\n182.5510,3.275799\n182.5510,3.275799\n182.5299,3.282776\n182.5073,3.289751\n182.4839,3.296724\n182.4839,3.296724\n182.4193,3.301769\n182.3818,3.304024\n182.3393,3.305422\n182.3393,3.305422\n182.3097,3.319182\n182.2801,3.332942\n182.2505,3.346703\n182.2505,3.346703\n182.2058,3.349237\n182.1724,3.350562\n182.1214,3.351813\n182.1214,3.351813\n182.0857,3.355219\n182.0501,3.358720\n182.0144,3.362267\n182.0144,3.362267\n181.9826,3.361998\n181.9494,3.361679\n181.9155,3.361264\n181.9155,3.361264\n181.8993,3.358627\n181.8824,3.355895\n181.8640,3.353113\n181.8640,3.353113\n181.8195,3.323377\n181.7747,3.293581\n181.7294,3.263744\n181.6831,3.233886\n181.6831,3.233886\n181.6504,3.221729\n181.6178,3.209571\n181.5851,3.197413\n181.5851,3.197413\n181.5590,3.194186\n181.5322,3.190958\n181.5038,3.187728\n181.5038,3.187728\n181.4631,3.187028\n181.4216,3.186326\n181.3787,3.185621\n181.3787,3.185621\n181.3715,3.194033\n181.3674,3.204980\n181.3624,3.222156\n181.3522,3.249254\n181.3328,3.289966\n181.3001,3.347987\n181.3001,3.347987\n181.2885,3.351375\n181.2770,3.354810\n181.2654,3.358340\n181.2654,3.358340\n181.2042,3.358465\n181.1430,3.358636\n181.0819,3.358903\n181.0819,3.358903\n181.0501,3.384986\n181.0168,3.411115\n180.9828,3.437336\n180.9828,3.437336\n180.9275,3.439885\n180.8786,3.441405\n180.7944,3.443200\n180.7944,3.443200\n180.7678,3.456335\n180.7398,3.469515\n180.7110,3.482788\n180.7110,3.482788\n180.6674,3.485922\n180.6379,3.487472\n180.5973,3.488769\n180.5973,3.488769\n180.5710,3.486753\n180.5440,3.484642\n180.5155,3.482481\n180.5155,3.482481\n180.4161,3.452163\n180.3312,3.421584\n180.2682,3.401802\n180.2682,3.401802\n180.1950,3.399712\n180.1211,3.397526\n180.0459,3.395291\n180.0459,3.395291\n180.0168,3.390776\n179.9891,3.388199\n179.9392,3.385351\n179.9392,3.385351\n179.9118,3.386794\n179.8836,3.388236\n179.8539,3.389676\n179.8539,3.389676\n179.8403,3.403891\n179.8266,3.422155\n179.8126,3.443938\n179.7980,3.468709\n179.7825,3.495939\n179.7659,3.525096\n179.7480,3.555652\n179.7284,3.587076\n179.7069,3.618837\n179.7069,3.618837\n179.6600,3.639932\n179.6360,3.648319\n179.6141,3.651187\n179.6141,3.651187\n179.5713,3.651827\n179.5385,3.651775\n179.4875,3.650985\n179.4875,3.650985\n179.4531,3.644299\n179.3975,3.635030\n179.3206,3.618221\n179.3206,3.618221\n179.2695,3.587066\n179.2177,3.555815\n179.1646,3.524515\n179.1646,3.524515\n179.1254,3.518112\n179.0981,3.515314\n179.0593,3.513726\n179.0593,3.513726\n179.0323,3.514533\n179.0046,3.515338\n178.9755,3.516141\n178.9755,3.516141\n178.9531,3.528699\n178.9291,3.541350\n178.9044,3.554047\n178.9044,3.554047\n178.8841,3.580779\n178.8635,3.607520\n178.8427,3.634282\n178.8214,3.661073\n178.7994,3.687904\n178.7994,3.687904\n178.7804,3.691697\n178.7600,3.695487\n178.7388,3.699276\n178.7388,3.699276\n178.6978,3.702404\n178.6561,3.705578\n178.6129,3.708845\n178.6129,3.708845\n178.5796,3.715808\n178.5447,3.722816\n178.5091,3.729918\n178.5091,3.729918\n178.4821,3.731211\n178.4544,3.732598\n178.4252,3.734030\n178.4252,3.734030\n178.4006,3.738034\n178.3760,3.742085\n178.3514,3.746230\n178.3514,3.746230\n178.3043,3.748766\n178.2573,3.751396\n178.2103,3.754074\n178.2103,3.754074\n178.1799,3.753804\n178.1480,3.753485\n178.1155,3.753071\n178.1155,3.753071\n177.9389,3.709628\n177.8617,3.691881\n177.8176,3.684619\n177.8176,3.684619\n177.7850,3.684566\n177.7523,3.684513\n177.7197,3.684460\n177.7197,3.684460\n177.5965,3.710636\n177.4053,3.756054\n177.2914,3.781679\n177.2914,3.781679\n177.2748,3.782140\n177.2575,3.782694\n177.2388,3.783292\n177.2388,3.783292\n177.1725,3.778291\n177.1063,3.773242\n177.0402,3.768099\n177.0402,3.768099\n176.9975,3.766904\n176.9535,3.765613\n176.9088,3.764273\n176.9088,3.764273\n176.8527,3.758871\n176.7965,3.753468\n176.7404,3.748066\n176.7404,3.748066\n176.6823,3.747970\n176.6243,3.747875\n176.5663,3.747779\n176.5663,3.747779\n176.4549,3.760906\n176.2973,3.781178\n176.1888,3.793035\n176.1888,3.793035\n176.1631,3.792993\n176.1366,3.792949\n176.1087,3.792903\n176.1087,3.792903\n176.0923,3.791389\n176.0744,3.789872\n176.0559,3.788355\n176.0559,3.788355\n175.9946,3.788418\n175.9394,3.789483\n175.8431,3.792462\n175.8431,3.792462\n175.7961,3.788372\n175.7420,3.782288\n175.6887,3.778187\n175.6887,3.778187\n175.6385,3.779559\n175.6030,3.781757\n175.5516,3.786667\n175.5516,3.786667\n175.4619,3.786108\n175.3957,3.785400\n175.3419,3.785467\n175.3419,3.785467\n175.2715,3.792422\n175.2256,3.796255\n175.1649,3.800252\n175.1649,3.800252\n175.1037,3.802486\n175.0418,3.804719\n174.9786,3.806949\n174.9786,3.806949\n174.7921,3.806502\n174.6526,3.805331\n174.4405,3.802433\n174.4405,3.802433\n174.2936,3.797748\n174.1808,3.793545\n174.0159,3.787696\n174.0159,3.787696\n173.8289,3.777395\n173.6423,3.767095\n173.4561,3.756794\n173.4561,3.756794\n173.2992,3.743570\n173.1419,3.730344\n172.9835,3.717116\n172.9835,3.717116\n172.6656,3.680877\n172.4158,3.652655\n172.2206,3.630542\n172.0667,3.612629\n171.9412,3.597008\n171.9412,3.597008\n171.8991,3.589807\n171.8180,3.579707\n171.7337,3.571159\n171.7337,3.571159\n171.6610,3.561411\n171.5884,3.551569\n171.5159,3.541679\n171.5159,3.541679\n171.2611,3.516202\n171.1202,3.501307\n170.9724,3.484228\n170.9724,3.484228\n170.7718,3.468779\n170.5418,3.450917\n170.1082,3.419194\n170.1082,3.419194\n170.0161,3.413476\n169.7687,3.394974\n169.1572,3.347828\n169.1572,3.347828\n168.8672,3.321703\n168.6746,3.303815\n168.4924,3.285906\n168.2343,3.259715\n168.2343,3.259715\n168.2064,3.255621\n168.1786,3.251480\n168.1508,3.247244\n##END=\n'