b'##TITLE=2-Hydroxypyridine\n##JCAMP-DX=4.24\n##DATA TYPE=UV/VIS SPECTRUM\n##ORIGIN=INSTITUTE OF ENERGY PROBLEMS OF CHEMICAL PHYSICS, RAS\n##OWNER=INEP CP RAS, NIST OSRD\nCollection (C) 2007 copyright by the U.S. Secretary of Commerce\non behalf of the United States of America. All rights reserved.\n##CAS REGISTRY NO=142-08-5\n##MOLFORM=C5H5NO\n##MP=107-108\n##SOURCE REFERENCE=RAS UV No. 16234\n##$NIST SQUIB=1972BUR/1953\n##$NIST SOURCE=TYUGLMTE\n##SPECTROMETER/DATA SYSTEM=unknown\n##XUNITS=Wavelength (nm)\n##YUNITS=Logarithm epsilon\n##XFACTOR=1.0\n##YFACTOR=1.0\n##FIRSTX=200.32\n##LASTX=332.36\n##FIRSTY=3.44\n##MAXX=332.36\n##MINX=200.32\n##MAXY=3.892\n##MINY=2.638\n##NPOINTS=130\n##$REF AUTHOR=Burton, A.G.; et al.\n##$REF JOURNAL=J. Chem. Soc., Perkin Trans. II\n##$REF PAGE=1953\n##$REF DATE=1972\n##XYPOINTS=(XY..XY)\n200.32,3.440\n203.19,3.561\n204.15,3.610\n205.10,3.642\n206.06,3.675\n207.02,3.715\n207.97,3.745\n208.93,3.773\n209.89,3.800\n210.84,3.819\n211.80,3.837\n212.76,3.855\n213.71,3.867\n214.67,3.884\n215.63,3.892\n216.59,3.882\n217.54,3.855\n218.50,3.828\n219.46,3.797\n220.41,3.740\n221.37,3.661\n222.33,3.581\n223.28,3.474\n224.24,3.402\n225.20,3.303\n226.15,3.214\n227.11,3.112\n228.07,3.027\n229.02,2.977\n229.98,2.891\n230.94,2.822\n231.89,2.761\n233.00,2.715\n234.50,2.665\n236.68,2.638\n237.64,2.638\n238.59,2.638\n240.55,2.655\n243.38,2.716\n244.33,2.739\n245.29,2.761\n246.25,2.802\n247.20,2.822\n249.12,2.891\n251.03,2.950\n251.99,2.977\n252.95,3.015\n253.90,3.038\n254.86,3.071\n255.82,3.112\n256.77,3.139\n257.73,3.166\n258.69,3.191\n259.64,3.229\n260.60,3.264\n261.56,3.290\n262.51,3.309\n263.47,3.333\n264.43,3.355\n265.38,3.382\n266.34,3.402\n267.30,3.426\n268.26,3.449\n269.21,3.470\n270.17,3.491\n271.13,3.510\n272.08,3.529\n273.04,3.551\n274.00,3.571\n274.95,3.588\n275.91,3.603\n276.87,3.625\n277.82,3.639\n278.78,3.645\n279.74,3.659\n280.69,3.675\n281.65,3.685\n282.61,3.698\n283.56,3.705\n284.52,3.715\n285.48,3.729\n286.44,3.738\n287.39,3.747\n288.35,3.754\n289.31,3.760\n290.26,3.767\n291.22,3.771\n292.18,3.777\n293.13,3.781\n294.09,3.785\n295.05,3.789\n296.00,3.789\n296.96,3.789\n297.92,3.789\n298.87,3.783\n299.83,3.777\n300.79,3.769\n301.74,3.763\n302.70,3.756\n303.66,3.745\n304.62,3.734\n305.57,3.722\n306.53,3.708\n307.49,3.693\n308.44,3.677\n309.40,3.659\n310.36,3.630\n311.31,3.607\n312.27,3.581\n313.23,3.561\n314.18,3.533\n315.14,3.507\n316.10,3.479\n317.05,3.458\n318.01,3.431\n318.97,3.402\n319.92,3.372\n320.88,3.344\n321.84,3.315\n322.80,3.271\n323.75,3.229\n324.71,3.191\n325.67,3.139\n326.62,3.092\n327.58,3.038\n328.54,2.990\n329.49,2.936\n330.45,2.840\n331.41,2.761\n332.36,2.665\n##END=\n'