b'##TITLE=Cyclopentene\n##JCAMP-DX=4.24\n##DATA TYPE=UV/VIS SPECTRUM\n##ORIGIN=INSTITUTE OF ENERGY PROBLEMS OF CHEMICAL PHYSICS, RAS\n##OWNER=INEP CP RAS, NIST OSRD\nCollection (C) 2007 copyright by the U.S. Secretary of Commerce\non behalf of the United States of America. All rights reserved.\n##CAS REGISTRY NO=142-29-0\n##MOLFORM=C5H8\n##MP=-135.1\n##BP=44.2\n##SOURCE REFERENCE=RAS UV No. 47\n##$NIST SQUIB=1951PIC/MUN4862-4865\n##$NIST SOURCE=TSGMTE\n##SPECTROMETER/DATA SYSTEM=Hilger fluorite prism spectrograph\n##XUNITS=Wavelength (nm)\n##YUNITS=Logarithm epsilon\n##XFACTOR=1.000000\n##YFACTOR=1.000000\n##FIRSTX=211.3235\n##LASTX=154.0660\n##FIRSTY=1.50587\n##MAXX=211.324\n##MINX=154.066\n##MAXY=3.96057\n##MINY=1.50587\n##NPOINTS=657\n##$REF AUTHOR=Pickett, L.W.; Muntz, M.; McPherson, E.M.\n##$REF TITLE=Vacuum ultraviolet absorption spectra of cyclic compounds. I. Cyclohexane, cyclohexene, cyclopentane, Cyclopentene and benzene\n##$REF JOURNAL=J. Am. Chem. Soc.\n##$REF VOLUME=73\n##$REF PAGE=4862-4865\n##$REF DATE=1951\n##XYPOINTS=(XY..XY)\n211.3235,1.505874\n211.2978,1.524763\n211.2671,1.543617\n211.2251,1.565485\n211.1657,1.593413\n211.0827,1.630453\n210.9700,1.679651\n210.8214,1.744058\n210.8214,1.744058\n210.6501,1.801327\n210.5228,1.843509\n210.4268,1.874398\n210.3497,1.897785\n210.2787,1.917463\n210.2015,1.937226\n210.0680,1.961200\n210.0274,1.961605\n209.9852,1.962150\n209.9852,1.962150\n209.9784,1.967276\n209.9701,1.972542\n209.9586,1.977878\n209.9586,1.977878\n209.9288,1.964993\n209.9080,1.969178\n209.8873,1.973503\n209.8701,1.982090\n209.8665,1.977899\n209.8101,1.986506\n209.7270,1.994909\n209.7270,1.994909\n209.6156,2.028358\n209.5012,2.061947\n209.3854,2.095606\n209.3854,2.095606\n209.2869,2.096898\n209.1885,2.098259\n209.0903,2.099760\n209.0903,2.099760\n209.0569,2.118005\n209.0220,2.136251\n208.9840,2.154496\n208.9840,2.154496\n208.9074,2.159638\n208.8309,2.164919\n208.7544,2.170270\n208.7544,2.170270\n208.6694,2.198624\n208.6094,2.213556\n208.5229,2.227865\n208.5229,2.227865\n208.4556,2.231572\n208.4113,2.229148\n208.3832,2.229876\n208.3726,2.233954\n208.3536,2.230744\n208.3209,2.231683\n208.2030,2.237056\n208.2030,2.237056\n208.1706,2.261286\n208.1367,2.285587\n208.0997,2.310029\n208.0997,2.310029\n208.0512,2.312567\n208.0028,2.315175\n207.9843,2.336154\n207.9718,2.329961\n207.9623,2.323907\n207.9545,2.317923\n207.9545,2.317923\n207.8717,2.323287\n207.8711,2.317942\n207.8343,2.317950\n207.8303,2.323297\n207.7945,2.317959\n207.7904,2.323306\n207.7537,2.323314\n207.7537,2.323314\n207.7535,2.321439\n207.7533,2.319634\n207.7531,2.317969\n207.7531,2.317969\n207.6985,2.325842\n207.6985,2.325842\n207.6983,2.323967\n207.6981,2.322162\n207.6979,2.320497\n207.6618,2.325850\n207.6220,2.325859\n207.5807,2.325869\n207.5807,2.325869\n207.4795,2.350197\n207.3785,2.374665\n207.2776,2.399202\n207.2776,2.399202\n207.1913,2.405115\n207.1312,2.411161\n207.0719,2.410883\n207.0456,2.422524\n207.0456,2.422524\n207.0376,2.414676\n207.0018,2.418539\n206.9905,2.424737\n206.9630,2.422543\n206.9339,2.426952\n206.8742,2.429166\n206.8742,2.429166\n206.8401,2.433902\n206.8045,2.438708\n206.7658,2.443655\n206.7658,2.443655\n206.7295,2.444386\n206.6902,2.445256\n206.6493,2.446197\n206.6493,2.446197\n206.6429,2.452185\n206.6349,2.458242\n206.6239,2.464441\n206.5676,2.451562\n206.5676,2.451562\n206.5674,2.449687\n206.5672,2.447881\n206.5670,2.446216\n206.4717,2.452306\n206.3759,2.453189\n206.2803,2.454143\n206.2803,2.454143\n206.1910,2.468942\n206.0987,2.483742\n206.0050,2.498543\n206.0050,2.498543\n205.9574,2.499276\n205.9098,2.500148\n205.8622,2.501091\n205.8622,2.501091\n205.8554,2.503620\n205.8471,2.506219\n205.8358,2.508958\n205.7737,2.501112\n205.7349,2.501120\n205.6991,2.501129\n205.6649,2.501137\n205.6649,2.501137\n205.6647,2.499343\n205.6645,2.497690\n205.6643,2.496106\n205.5768,2.503987\n205.4146,2.510488\n205.3200,2.513200\n205.2129,2.524824\n205.2129,2.524824\n205.2126,2.521366\n205.2122,2.517907\n205.2118,2.514448\n205.2118,2.514448\n205.1302,2.510694\n205.1275,2.515318\n205.1050,2.518339\n205.0914,2.527054\n205.0436,2.522348\n204.9700,2.529283\n204.8488,2.531513\n204.8488,2.531513\n204.8222,2.534978\n204.7956,2.538443\n204.7690,2.541908\n204.7690,2.541908\n204.7334,2.542242\n204.6947,2.542647\n204.6555,2.551053\n204.6552,2.548316\n204.6549,2.545719\n204.6547,2.543192\n204.6547,2.543192\n204.6008,2.543205\n204.5337,2.542289\n204.4681,2.541442\n204.4056,2.540735\n204.4056,2.540735\n204.3938,2.537279\n204.3850,2.533822\n204.3777,2.530365\n204.3184,2.540755\n204.1862,2.540250\n204.0980,2.548668\n204.0978,2.546793\n204.0976,2.544988\n204.0975,2.543323\n204.0572,2.539885\n203.9298,2.539589\n203.8498,2.540865\n203.7506,2.544895\n203.7077,2.548003\n203.6842,2.552853\n203.6842,2.552853\n203.6308,2.554123\n203.5759,2.555394\n203.5181,2.556666\n203.5181,2.556666\n203.5113,2.558332\n203.5032,2.560140\n203.4920,2.562017\n203.4920,2.562017\n203.3573,2.564565\n203.2198,2.567113\n203.0810,2.569661\n203.0810,2.569661\n203.0731,2.575730\n203.0622,2.581940\n203.0498,2.588220\n202.9955,2.575027\n202.9840,2.573155\n202.9754,2.571351\n202.9684,2.569688\n202.8828,2.573796\n202.8086,2.576201\n202.6670,2.579530\n202.5011,2.585521\n202.5011,2.585521\n202.4976,2.589528\n202.4706,2.592632\n202.3969,2.597495\n202.3969,2.597495\n202.3375,2.596251\n202.3161,2.598772\n202.2325,2.600049\n202.1624,2.595303\n202.1474,2.601328\n202.1474,2.601328\n202.1410,2.604788\n202.1331,2.608249\n202.1222,2.611710\n202.0720,2.594265\n201.9890,2.592247\n201.9890,2.592247\n201.9758,2.589117\n201.9641,2.586057\n201.9553,2.583136\n201.9039,2.593525\n201.7565,2.598126\n201.6339,2.602650\n201.5259,2.605565\n201.5259,2.605565\n201.5066,2.608492\n201.4873,2.611560\n201.4681,2.614697\n201.4670,2.604007\n201.4215,2.603482\n201.3775,2.603096\n201.3365,2.602780\n201.3365,2.602780\n201.3251,2.600594\n201.3167,2.598476\n201.3098,2.596498\n201.2519,2.604058\n201.1459,2.604492\n201.0372,2.605065\n200.9865,2.614814\n200.9667,2.611686\n200.9469,2.608627\n200.9271,2.605709\n200.9271,2.605709\n200.8496,2.608244\n200.6512,2.615186\n200.5232,2.619247\n200.4499,2.622805\n200.4493,2.617460\n200.3442,2.618207\n200.2364,2.619095\n200.1272,2.620054\n200.1272,2.620054\n199.8971,2.633095\n199.6675,2.646276\n199.4385,2.659528\n199.4385,2.659528\n199.3967,2.665361\n199.3139,2.672182\n199.2552,2.679068\n199.2552,2.679068\n199.0561,2.692591\n198.8746,2.707718\n198.7818,2.718490\n198.7818,2.718490\n198.5882,2.733270\n198.4803,2.742509\n198.3918,2.748459\n198.3918,2.748459\n198.3570,2.754453\n198.2872,2.760946\n198.2356,2.766735\n198.2356,2.766735\n198.1437,2.773128\n198.0645,2.780636\n197.9728,2.787868\n197.9728,2.787868\n197.8433,2.805171\n197.7775,2.816030\n197.7191,2.829752\n197.7191,2.829752\n197.6860,2.831344\n197.6501,2.833007\n197.6128,2.834810\n197.6128,2.834810\n197.4353,2.859474\n197.2853,2.877982\n197.1249,2.901594\n197.1249,2.901594\n196.8339,2.936966\n196.6950,2.952246\n196.5888,2.960529\n196.5888,2.960529\n196.5216,2.971866\n196.4545,2.983203\n196.3874,2.994540\n196.3874,2.994540\n196.3548,2.996214\n196.3194,2.998028\n196.2826,2.999912\n196.2826,2.999912\n196.0515,3.033930\n195.8197,3.067949\n195.5876,3.101968\n195.3555,3.135987\n195.1236,3.170006\n195.1236,3.170006\n195.0746,3.172534\n195.0244,3.175063\n194.9714,3.177592\n194.9714,3.177592\n194.5584,3.220986\n194.3671,3.240846\n194.3207,3.248509\n194.3207,3.248509\n194.2390,3.254738\n194.1497,3.264252\n193.9964,3.278465\n193.9964,3.278465\n193.7335,3.309034\n193.4714,3.339603\n193.2100,3.370172\n193.2100,3.370172\n192.7375,3.415506\n192.5583,3.434140\n192.5173,3.442047\n192.5173,3.442047\n192.2589,3.462764\n192.1582,3.472328\n192.1285,3.478940\n192.1285,3.478940\n192.0380,3.488234\n191.9801,3.492977\n191.9050,3.497236\n191.9050,3.497236\n191.8758,3.503230\n191.8452,3.509294\n191.8121,3.515499\n191.8121,3.515499\n191.6549,3.526651\n191.4982,3.540109\n191.3728,3.549575\n191.3728,3.549575\n191.2586,3.562731\n191.0098,3.585915\n190.7682,3.609795\n190.7682,3.609795\n190.5451,3.628862\n190.2100,3.660955\n189.6210,3.715758\n189.6210,3.715758\n189.2253,3.749371\n188.9402,3.775408\n188.6231,3.803760\n188.6231,3.803760\n188.4142,3.832839\n188.2045,3.862058\n187.9927,3.891348\n187.9927,3.891348\n187.9571,3.893559\n187.9191,3.895771\n187.9036,3.910868\n187.8936,3.906480\n187.8860,3.902162\n187.8798,3.897983\n187.8798,3.897983\n187.8058,3.895173\n187.7337,3.893935\n187.6642,3.892697\n187.5959,3.891458\n187.5959,3.891458\n187.4781,3.882127\n187.3251,3.871340\n187.1471,3.857624\n187.1471,3.857624\n187.0834,3.855766\n186.9798,3.854410\n186.7479,3.852390\n186.7479,3.852390\n186.5920,3.860295\n186.4376,3.868199\n186.2859,3.876103\n186.2859,3.876103\n186.0656,3.881103\n185.8544,3.885751\n185.7089,3.890730\n185.7089,3.890730\n185.5098,3.892988\n185.3111,3.895245\n185.1128,3.897503\n185.1128,3.897503\n184.9541,3.907704\n184.8904,3.912776\n184.8670,3.917069\n184.8670,3.917069\n184.7477,3.926501\n184.6430,3.934252\n184.5240,3.944523\n184.5240,3.944523\n184.3780,3.944565\n184.2346,3.944607\n184.0927,3.944648\n184.0927,3.944648\n184.0164,3.941537\n183.9414,3.938496\n183.8689,3.935594\n183.8689,3.935594\n183.7238,3.934704\n183.5814,3.933883\n183.4404,3.933202\n183.4404,3.933202\n183.3115,3.940693\n183.1840,3.948044\n183.0591,3.955324\n183.0591,3.955324\n182.8630,3.959143\n182.7183,3.960571\n180.9492,3.946567\n180.2630,3.946944\n179.6451,3.946939\n179.2300,3.946089\n179.2300,3.946089\n179.0765,3.942677\n178.9255,3.939264\n178.7759,3.935851\n178.7759,3.935851\n178.3669,3.938015\n177.9575,3.941926\n177.6333,3.944064\n177.6333,3.944064\n177.5624,3.942211\n177.4926,3.940428\n177.4252,3.938783\n177.4252,3.938783\n176.8249,3.935512\n176.2286,3.932240\n175.6364,3.928968\n175.6364,3.928968\n175.3708,3.922391\n175.2475,3.918354\n175.1605,3.913398\n175.1605,3.913398\n174.9692,3.906960\n174.8153,3.900301\n174.7067,3.896563\n174.7067,3.896563\n174.5748,3.888837\n174.4270,3.882515\n174.2793,3.875633\n174.2793,3.875633\n173.9352,3.864109\n173.6735,3.855914\n173.4900,3.848532\n173.4900,3.848532\n173.2513,3.843497\n173.0838,3.838369\n172.9102,3.833313\n172.9102,3.833313\n172.7705,3.826220\n172.6309,3.819267\n172.4916,3.812383\n172.4916,3.812383\n172.2286,3.808871\n171.9717,3.807244\n171.5022,3.806107\n171.5022,3.806107\n171.3331,3.800154\n171.1005,3.793803\n170.9731,3.789304\n170.9731,3.789304\n170.7204,3.781143\n170.5318,3.774428\n170.3303,3.768766\n170.3303,3.768766\n170.1680,3.757315\n169.9469,3.743298\n169.8256,3.733720\n169.8256,3.733720\n169.7153,3.730788\n169.5713,3.729125\n169.2707,3.727305\n169.2707,3.727305\n169.1122,3.722201\n168.9164,3.717807\n168.8106,3.714571\n168.8106,3.714571\n168.5668,3.705629\n168.3928,3.699109\n168.2021,3.693713\n168.2021,3.693713\n167.9672,3.685246\n167.7744,3.679350\n167.6523,3.674408\n167.6523,3.674408\n167.5633,3.673496\n167.4763,3.672583\n167.3905,3.671670\n167.3905,3.671670\n167.3515,3.674828\n167.3146,3.677985\n167.2787,3.681142\n167.2787,3.681142\n167.2614,3.690803\n167.2441,3.700323\n167.2268,3.709774\n167.2268,3.709774\n167.1714,3.724794\n167.1336,3.732959\n167.0808,3.741269\n167.0808,3.741269\n167.0047,3.741296\n166.9297,3.741322\n166.8568,3.741348\n166.8568,3.741348\n166.8093,3.735647\n166.7480,3.730230\n166.6856,3.722856\n166.6856,3.722856\n166.6422,3.721078\n166.6007,3.719439\n166.5603,3.717869\n166.5603,3.717869\n166.2990,3.717962\n166.0404,3.718053\n165.7837,3.718144\n165.7837,3.718144\n165.6593,3.712249\n165.4420,3.702405\n165.0863,3.684434\n165.0863,3.684434\n164.9518,3.682607\n164.8195,3.680850\n164.6883,3.679232\n164.6883,3.679232\n164.6196,3.674866\n164.5529,3.670569\n164.4872,3.666412\n164.4872,3.666412\n164.2605,3.646964\n164.1011,3.632103\n163.8724,3.609093\n163.8724,3.609093\n163.7945,3.605662\n163.7167,3.602232\n163.6389,3.598801\n163.6389,3.598801\n163.5314,3.598841\n163.4240,3.598880\n163.3168,3.598919\n163.3168,3.598919\n163.0452,3.596282\n162.6564,3.593829\n162.3616,3.591411\n162.3616,3.591411\n162.1858,3.584826\n161.9372,3.577151\n161.7650,3.570565\n161.7650,3.570565\n161.5421,3.565536\n160.7724,3.541067\n160.7724,3.541067\n160.7309,3.538346\n160.6903,3.535764\n160.6515,3.533252\n160.6515,3.533252\n160.3247,3.523011\n160.1287,3.518031\n159.8947,3.514044\n159.8947,3.514044\n159.7593,3.514096\n159.6240,3.514148\n159.4890,3.514200\n159.4890,3.514200\n159.3463,3.516444\n159.2048,3.518619\n159.0654,3.520652\n159.0654,3.520652\n158.9161,3.530248\n158.8155,3.535423\n158.6772,3.540612\n158.6772,3.540612\n158.6369,3.540011\n158.5974,3.539479\n158.5598,3.539086\n158.5598,3.539086\n158.4353,3.534150\n158.2196,3.528271\n157.9428,3.519832\n157.9428,3.519832\n157.7466,3.518651\n157.5519,3.517470\n157.3594,3.516288\n157.3594,3.516288\n157.2475,3.505338\n157.1366,3.494458\n157.0277,3.483717\n157.0277,3.483717\n156.8156,3.470677\n156.7220,3.463948\n156.6662,3.457763\n156.6662,3.457763\n156.5633,3.453099\n156.4674,3.447663\n156.3542,3.442165\n156.2874,3.440934\n156.1898,3.444025\n156.1098,3.447807\n155.9788,3.455522\n155.9788,3.455522\n155.7919,3.474825\n155.6795,3.487669\n155.5451,3.505064\n155.5451,3.505064\n155.5091,3.506348\n155.4713,3.507703\n155.4330,3.514228\n155.4329,3.512435\n155.4328,3.510781\n155.4327,3.509198\n155.4327,3.509198\n155.4015,3.506380\n155.3677,3.505858\n155.3356,3.505475\n155.3044,3.505162\n155.3044,3.505162\n155.2811,3.502656\n155.2587,3.500149\n155.2381,3.497642\n155.2381,3.497642\n155.1799,3.495791\n155.1217,3.494009\n155.0637,3.492367\n155.0134,3.491130\n154.8167,3.491536\n154.6205,3.492012\n154.4248,3.492628\n154.4248,3.492628\n154.2235,3.497917\n154.0660,3.502768\n##END=\n'