b'##TITLE=1,6-dihydro-4-hydroxy-6-oxo-5-pyrimidinecarboxaldehyde\n##JCAMP-DX=4.24\n##DATA TYPE=UV/VIS SPECTRUM\n##ORIGIN=INSTITUTE OF ENERGY PROBLEMS OF CHEMICAL PHYSICS, RAS\n##OWNER=INEP CP RAS, NIST OSRD\nCollection (C) 2007 copyright by the U.S. Secretary of Commerce\non behalf of the United States of America. All rights reserved.\n##CAS REGISTRY NO=14256-99-6\n##MOLFORM=C5H4N2O3\n##MP=245-250 dec.\n##SOURCE REFERENCE=RAS UV No. 22201\n##$NIST SQUIB=1985MIK/378\n##$NIST SOURCE=TYUGLMTE\n##SPECTROMETER/DATA SYSTEM=Specord UV-Vis\n##XUNITS=Wavelength (nm)\n##YUNITS=Logarithm epsilon\n##XFACTOR=1.0\n##YFACTOR=1.0\n##FIRSTX=197.145\n##LASTX=338.481\n##FIRSTY=3.869\n##MAXX=338.481\n##MINX=197.145\n##MAXY=4.253\n##MINY=3.042\n##NPOINTS=165\n##$REF AUTHOR=Mikhaleva, M.A.; et al.\n##$REF JOURNAL=Khim. Geterosikl. Soedin.\n##$REF PAGE=378\n##$REF DATE=1985\n##XYPOINTS=(XY..XY)\n197.145,3.869\n198.090,3.880\n198.890,3.894\n199.690,3.911\n200.490,3.931\n201.290,3.951\n202.090,3.972\n202.904,3.993\n203.704,4.013\n204.504,4.032\n205.304,4.052\n206.104,4.071\n206.904,4.091\n207.704,4.111\n208.504,4.130\n209.304,4.149\n210.104,4.167\n210.904,4.184\n211.704,4.199\n212.504,4.213\n213.304,4.225\n214.104,4.236\n214.904,4.244\n215.704,4.249\n216.504,4.253\n217.304,4.253\n218.104,4.251\n218.904,4.246\n219.704,4.238\n220.504,4.227\n221.304,4.211\n222.104,4.192\n222.904,4.169\n223.704,4.140\n224.504,4.104\n225.725,4.035\n226.745,3.987\n227.766,3.931\n228.787,3.903\n229.808,3.844\n230.828,3.796\n231.849,3.742\n232.870,3.706\n233.890,3.663\n234.911,3.632\n235.932,3.594\n236.952,3.564\n237.973,3.536\n238.994,3.508\n240.015,3.482\n241.035,3.457\n242.056,3.436\n243.077,3.421\n244.097,3.406\n245.118,3.393\n246.139,3.383\n247.159,3.375\n249.201,3.365\n250.222,3.360\n251.242,3.352\n252.263,3.342\n253.114,3.331\n254.304,3.314\n255.325,3.296\n256.346,3.276\n257.367,3.255\n258.387,3.235\n259.408,3.222\n260.429,3.209\n261.449,3.202\n262.470,3.194\n263.491,3.192\n264.511,3.187\n265.532,3.184\n266.553,3.181\n267.574,3.181\n268.594,3.187\n269.583,3.191\n270.383,3.195\n271.183,3.201\n271.983,3.207\n272.783,3.214\n273.583,3.222\n274.383,3.231\n275.183,3.241\n275.983,3.251\n276.783,3.262\n277.583,3.273\n278.383,3.284\n279.183,3.296\n279.983,3.308\n280.783,3.321\n281.583,3.333\n282.383,3.346\n283.183,3.359\n283.983,3.372\n284.783,3.385\n285.583,3.398\n286.383,3.410\n287.183,3.423\n287.983,3.435\n288.783,3.448\n289.583,3.460\n290.383,3.471\n291.183,3.483\n291.983,3.494\n292.783,3.505\n293.583,3.515\n294.383,3.525\n295.183,3.534\n295.983,3.543\n296.783,3.552\n297.583,3.560\n298.383,3.567\n299.183,3.574\n299.983,3.580\n300.783,3.586\n301.583,3.591\n302.383,3.595\n303.183,3.598\n303.983,3.601\n304.783,3.603\n305.583,3.604\n306.383,3.604\n307.183,3.603\n307.983,3.601\n308.783,3.598\n309.583,3.594\n310.383,3.590\n311.183,3.583\n311.983,3.576\n312.783,3.568\n313.583,3.558\n314.383,3.547\n315.183,3.534\n315.281,3.532\n316.081,3.521\n316.881,3.507\n317.681,3.492\n318.481,3.475\n319.281,3.458\n320.081,3.440\n320.881,3.422\n321.681,3.404\n322.481,3.386\n323.281,3.368\n324.081,3.350\n324.881,3.333\n325.681,3.316\n326.481,3.299\n327.281,3.283\n328.081,3.266\n328.881,3.250\n329.681,3.233\n330.481,3.216\n331.281,3.200\n332.081,3.183\n332.881,3.165\n333.681,3.148\n334.481,3.130\n335.281,3.112\n336.081,3.094\n336.881,3.076\n337.681,3.059\n338.481,3.042\n##END=\n'