b'##TITLE=Pentafluoronitrosobenzene\n##JCAMP-DX=4.24\n##DATA TYPE=UV/VIS SPECTRUM\n##ORIGIN=INSTITUTE OF ENERGY PROBLEMS OF CHEMICAL PHYSICS, RAS\n##OWNER=INEP CP RAS, NIST OSRD\nCollection (C) 2007 copyright by the U.S. Secretary of Commerce\non behalf of the United States of America. All rights reserved.\n##CAS REGISTRY NO=1423-13-8\n##MOLFORM=C6F5NO\n##MP=42-45\n##SOURCE REFERENCE=RAS UV No. 18447\n##$NIST SQUIB=1980KOP32\n##$NIST SOURCE=TYUGLMTE\n##SPECTROMETER/DATA SYSTEM=SF 16\n##XUNITS=Wavelength (nm)\n##YUNITS=Logarithm epsilon\n##XFACTOR=1.0\n##YFACTOR=1.0\n##FIRSTX=212.15\n##LASTX=384.33\n##FIRSTY=3.601\n##MAXX=384.33\n##MINX=212.15\n##MAXY=3.907\n##MINY=2.129\n##NPOINTS=80\n##$REF AUTHOR=(editor), Koptyug V.A.\n##$REF JOURNAL=Atlas of Spectra of Aromatic and Heterocyclic Compounds\n##$REF VOLUME=18\n##$REF PAGE=32\n##$REF DATE=1980\n##XYPOINTS=(XY..XY)\n212.15,3.601\n215.85,3.632\n220.07,3.653\n224.30,3.637\n227.99,3.606\n230.63,3.564\n232.75,3.523\n234.86,3.481\n236.97,3.440\n239.08,3.398\n240.67,3.356\n242.78,3.315\n245.42,3.278\n246.00,3.274\n247.00,3.272\n247.80,3.270\n248.50,3.272\n249.50,3.274\n250.18,3.278\n251.76,3.325\n253.35,3.372\n254.93,3.419\n255.99,3.466\n257.57,3.512\n259.15,3.559\n260.74,3.601\n261.80,3.647\n263.91,3.689\n265.49,3.731\n267.61,3.772\n270.25,3.814\n272.89,3.850\n275.53,3.887\n279.75,3.907\n282.92,3.876\n284.51,3.829\n285.56,3.783\n286.62,3.736\n288.20,3.694\n291.37,3.658\n296.13,3.663\n300.88,3.663\n305.11,3.642\n308.27,3.611\n310.92,3.575\n313.56,3.533\n315.67,3.491\n318.31,3.450\n320.95,3.408\n323.59,3.367\n326.76,3.330\n329.93,3.294\n332.57,3.258\n335.74,3.221\n338.38,3.180\n341.02,3.143\n343.66,3.102\n345.77,3.060\n347.89,3.018\n350.00,2.977\n352.64,2.940\n354.23,2.899\n355.81,2.857\n357.39,2.810\n358.45,2.764\n360.56,2.722\n362.15,2.675\n363.73,2.634\n365.85,2.592\n367.43,2.551\n369.01,2.509\n370.60,2.467\n372.18,2.426\n374.30,2.384\n375.35,2.337\n376.94,2.296\n379.05,2.254\n380.63,2.213\n382.75,2.171\n384.33,2.129\n##END=\n'