b'##TITLE=Iodoacetamide\n##JCAMP-DX=4.24\n##DATA TYPE=UV/VIS SPECTRUM\n##ORIGIN=INSTITUTE OF ENERGY PROBLEMS OF CHEMICAL PHYSICS, RAS\n##OWNER=INEP CP RAS, NIST OSRD\nCollection (C) 2007 copyright by the U.S. Secretary of Commerce\non behalf of the United States of America. All rights reserved.\n##CAS REGISTRY NO=144-48-9\n##MOLFORM=C2H4INO\n##MP=91-93\n##SOURCE REFERENCE=RAS UV No. 12869\n##$NIST SQUIB=1958FIN/SMI669\n##$NIST SOURCE=TYUGLMTE\n##SPECTROMETER/DATA SYSTEM=Beckman spectrophotometer\n##XUNITS=Wavelength (nm)\n##YUNITS=Logarithm epsilon\n##XFACTOR=1.0\n##YFACTOR=1.0\n##FIRSTX=230\n##LASTX=297.04\n##FIRSTY=2.854\n##MAXX=297.04\n##MINX=230\n##MAXY=2.854\n##MINY=2.316\n##NPOINTS=84\n##$REF AUTHOR=Finkle, B.J.; Smith, E.L.\n##$REF JOURNAL=J. Biol. Chem.\n##$REF VOLUME=230\n##$REF PAGE=669\n##$REF DATE=1958\n##XYPOINTS=(XY..XY)\n230.00,2.854\n230.09,2.853\n230.19,2.852\n230.28,2.852\n230.66,2.830\n231.31,2.807\n231.97,2.787\n232.63,2.773\n233.29,2.751\n233.94,2.735\n234.60,2.718\n235.26,2.704\n235.92,2.690\n236.57,2.678\n237.23,2.665\n237.89,2.658\n238.54,2.640\n239.20,2.631\n239.86,2.622\n240.52,2.615\n241.17,2.612\n241.83,2.606\n242.49,2.602\n243.15,2.597\n244.46,2.589\n245.12,2.587\n246.43,2.585\n247.09,2.583\n248.40,2.583\n249.06,2.585\n250.38,2.587\n251.03,2.591\n251.69,2.593\n252.35,2.593\n253.00,2.595\n253.66,2.599\n254.32,2.602\n254.98,2.604\n255.63,2.606\n256.29,2.612\n256.95,2.613\n258.26,2.621\n258.92,2.624\n259.58,2.631\n260.23,2.633\n261.55,2.640\n262.21,2.642\n263.52,2.643\n264.18,2.643\n265.49,2.643\n266.15,2.645\n267.46,2.643\n268.12,2.642\n269.44,2.637\n270.09,2.635\n271.41,2.626\n272.07,2.621\n273.38,2.612\n274.04,2.610\n275.35,2.597\n276.01,2.593\n277.32,2.579\n277.98,2.575\n278.64,2.567\n279.30,2.557\n280.61,2.544\n281.27,2.536\n281.92,2.529\n282.58,2.518\n283.90,2.499\n284.55,2.490\n285.21,2.480\n285.87,2.470\n287.18,2.452\n287.84,2.444\n288.50,2.427\n289.15,2.419\n290.47,2.401\n291.13,2.389\n291.78,2.377\n292.44,2.374\n293.10,2.367\n293.76,2.354\n297.04,2.316\n##END=\n'