b'##TITLE=Oxalic acid\n##JCAMP-DX=4.24\n##DATA TYPE=UV/VIS SPECTRUM\n##ORIGIN=INSTITUTE OF ENERGY PROBLEMS OF CHEMICAL PHYSICS, RAS\n##OWNER=INEP CP RAS, NIST OSRD\nCollection (C) 2007 copyright by the U.S. Secretary of Commerce\non behalf of the United States of America. All rights reserved.\n##CAS REGISTRY NO=144-62-7\n##MOLFORM=C2H2O4\n##MP=189.5 dec\n##BP=sub 157\n##SOURCE REFERENCE=RAS UV No. 9249\n##$NIST SQUIB=1949PES/ALS387\n##$NIST SOURCE=TYUGLMTE\n##SPECTROMETER/DATA SYSTEM=Quartz spectrograph\n##XUNITS=Wavelength (nm)\n##YUNITS=Logarithm epsilon\n##XFACTOR=1.0\n##YFACTOR=1.0\n##FIRSTX=217.43\n##LASTX=288.87\n##FIRSTY=2.868\n##MAXX=288.87\n##MINX=217.43\n##MAXY=2.868\n##MINY=0.829\n##NPOINTS=47\n##$REF AUTHOR=Pestemer, M.; Alslev-Klinker, A.\n##$REF JOURNAL=Z. Elektrochem\n##$REF VOLUME=53\n##$REF PAGE=387\n##$REF DATE=1949\n##XYPOINTS=(XY..XY)\n217.43,2.868\n218.69,2.802\n219.96,2.713\n221.25,2.639\n222.55,2.559\n223.83,2.481\n225.20,2.388\n226.55,2.278\n227.88,2.195\n229.30,2.102\n230.68,2.015\n232.11,1.948\n233.37,1.903\n234.82,1.862\n236.47,1.832\n238.91,1.800\n240.83,1.785\n242.54,1.777\n245.69,1.771\n247.30,1.766\n248.93,1.760\n250.45,1.752\n252.25,1.738\n253.94,1.727\n255.66,1.711\n256.97,1.699\n258.65,1.681\n260.95,1.650\n262.58,1.624\n264.49,1.589\n266.47,1.529\n268.36,1.485\n270.28,1.424\n272.23,1.369\n274.20,1.314\n276.21,1.248\n277.97,1.185\n280.11,1.106\n282.39,1.027\n284.52,0.950\n286.68,0.884\n287.04,0.873\n287.40,0.867\n287.77,0.856\n288.13,0.845\n288.50,0.840\n288.87,0.829\n##END=\n'