b'##TITLE=Carbamodithioic acid, diethyl-, (Na-salt)\n##JCAMP-DX=4.24\n##DATA TYPE=UV/VIS SPECTRUM\n##ORIGIN=INSTITUTE OF ENERGY PROBLEMS OF CHEMICAL PHYSICS, RAS\n##OWNER=INEP CP RAS, NIST OSRD\nCollection (C) 2007 copyright by the U.S. Secretary of Commerce\non behalf of the United States of America. All rights reserved.\n##CAS REGISTRY NO=147-84-2\n##MOLFORM=C5H11NS2\n##SOURCE REFERENCE=RAS UV No. 20159\n##$NIST SQUIB=1969FIH/140\n##$NIST SOURCE=TYUGLMTE\n##SPECTROMETER/DATA SYSTEM=SF-4\n##XUNITS=Wavelength (nm)\n##YUNITS=Logarithm epsilon\n##XFACTOR=1.0\n##YFACTOR=1.0\n##FIRSTX=209.59\n##LASTX=314.86\n##FIRSTY=4.048\n##MAXX=314.86\n##MINX=209.59\n##MAXY=4.161\n##MINY=2.785\n##NPOINTS=104\n##$REF AUTHOR=Fihtengolts, V.S.; et al.\n##$REF JOURNAL=Atlas of UV Absorption Spectra of Substances Used in Synthetic Rubber Manufacture\n##$REF PAGE=140\n##$REF DATE=1969\n##XYPOINTS=(XY..XY)\n209.59,4.048\n209.76,4.046\n210.06,4.042\n210.57,4.037\n211.33,4.027\n211.96,4.018\n212.75,4.005\n213.69,3.991\n214.72,3.976\n215.75,3.960\n216.78,3.942\n217.80,3.918\n218.83,3.901\n219.86,3.888\n220.88,3.882\n221.91,3.877\n222.94,3.873\n223.97,3.872\n224.99,3.873\n226.02,3.875\n227.05,3.877\n228.07,3.883\n229.10,3.890\n230.13,3.899\n231.16,3.907\n232.18,3.917\n233.21,3.929\n234.24,3.942\n235.26,3.956\n236.29,3.970\n237.32,3.982\n238.34,3.992\n239.37,4.005\n240.40,4.016\n241.43,4.029\n242.45,4.041\n243.48,4.050\n244.51,4.062\n245.53,4.073\n246.56,4.085\n247.59,4.097\n248.62,4.106\n249.64,4.115\n250.67,4.121\n251.70,4.127\n252.72,4.132\n253.75,4.132\n254.78,4.129\n255.81,4.117\n256.83,4.101\n257.86,4.085\n258.89,4.066\n259.91,4.045\n260.94,4.026\n261.97,4.001\n263.00,3.978\n264.02,3.960\n265.05,3.946\n266.08,3.936\n267.10,3.927\n268.13,3.921\n269.16,3.918\n270.18,3.918\n271.21,3.920\n272.24,3.924\n273.27,3.933\n274.29,3.940\n275.32,3.953\n276.35,3.968\n277.37,3.990\n278.40,4.006\n279.43,4.028\n280.46,4.045\n281.48,4.071\n282.51,4.097\n283.54,4.122\n284.56,4.143\n285.59,4.157\n286.62,4.161\n287.65,4.161\n288.67,4.158\n289.70,4.148\n290.73,4.107\n291.75,4.054\n292.78,3.995\n293.81,3.926\n294.98,3.841\n295.91,3.774\n296.89,3.700\n297.79,3.629\n298.85,3.559\n300.02,3.492\n301.19,3.433\n303.05,3.350\n303.91,3.302\n304.76,3.249\n305.79,3.196\n306.82,3.144\n307.84,3.076\n309.04,3.007\n310.09,2.948\n311.78,2.878\n313.30,2.832\n314.86,2.785\n##END=\n'