b'##TITLE=Cyclobutene, 1-methyl-\n##JCAMP-DX=4.24\n##DATA TYPE=UV/VIS SPECTRUM\n##ORIGIN=INSTITUTE OF ENERGY PROBLEMS OF CHEMICAL PHYSICS, RAS\n##OWNER=INEP CP RAS, NIST OSRD\nCollection (C) 2007 copyright by the U.S. Secretary of Commerce\non behalf of the United States of America. All rights reserved.\n##CAS REGISTRY NO=1489-60-7\n##MOLFORM=C5H8\n##BP=37.1/ 750 mm\n##SOURCE REFERENCE=RAS UV No. 12965\n##$NIST SQUIB=1958LOE/PIC345\n##$NIST SOURCE=TYUGLMTE\n##SPECTROMETER/DATA SYSTEM=n.i.g.\n##XUNITS=Wavelength (nm)\n##YUNITS=Logarithm epsilon\n##XFACTOR=1.0\n##YFACTOR=1.0\n##FIRSTX=156.98\n##LASTX=226.87\n##FIRSTY=3.871\n##MAXX=226.87\n##MINX=156.98\n##MAXY=4.102\n##MINY=1.956\n##NPOINTS=366\n##$REF AUTHOR=Loeffler, B.; Pickett, L.\n##$REF JOURNAL=J. Chem. Phys.\n##$REF VOLUME=28\n##$REF PAGE=345\n##$REF DATE=1958\n##XYPOINTS=(XY..XY)\n156.98,3.871\n157.08,3.863\n157.25,3.849\n157.38,3.843\n157.52,3.849\n157.76,3.876\n157.93,3.904\n158.07,3.920\n158.17,3.917\n158.28,3.909\n158.48,3.904\n158.62,3.915\n158.76,3.926\n158.88,3.934\n159.03,3.941\n159.18,3.948\n159.32,3.948\n159.46,3.942\n159.60,3.937\n159.74,3.931\n159.88,3.926\n160.01,3.921\n160.13,3.916\n160.30,3.909\n160.43,3.907\n160.58,3.904\n160.73,3.901\n160.84,3.900\n161.01,3.898\n161.15,3.898\n161.29,3.901\n161.44,3.904\n161.58,3.909\n161.73,3.920\n161.90,3.934\n162.04,3.944\n162.16,3.948\n162.30,3.950\n162.45,3.948\n162.60,3.942\n162.75,3.934\n162.90,3.923\n163.03,3.909\n163.18,3.898\n163.33,3.893\n163.47,3.898\n163.62,3.909\n163.77,3.926\n163.88,3.935\n164.03,3.945\n164.21,3.953\n164.38,3.955\n164.50,3.955\n164.66,3.953\n164.81,3.948\n164.96,3.942\n165.09,3.945\n165.26,3.953\n165.36,3.960\n165.48,3.966\n165.60,3.972\n165.72,3.977\n165.84,3.982\n165.93,3.986\n166.02,3.988\n166.17,3.986\n166.35,3.977\n166.46,3.969\n166.60,3.957\n166.78,3.942\n166.93,3.931\n167.08,3.920\n167.24,3.915\n167.39,3.914\n167.54,3.913\n167.71,3.913\n167.86,3.915\n168.01,3.920\n168.17,3.937\n168.32,3.953\n168.47,3.967\n168.63,3.975\n168.78,3.975\n168.95,3.970\n169.17,3.960\n169.31,3.953\n169.47,3.946\n169.58,3.942\n169.74,3.939\n169.85,3.937\n170.00,3.935\n170.12,3.934\n170.30,3.932\n170.42,3.932\n170.57,3.935\n170.69,3.941\n170.85,3.951\n171.01,3.963\n171.18,3.975\n171.31,3.985\n171.47,3.997\n171.64,4.010\n171.78,4.023\n171.91,4.033\n172.02,4.041\n172.12,4.046\n172.20,4.048\n172.31,4.047\n172.47,4.041\n172.65,4.033\n172.81,4.025\n172.98,4.015\n173.14,4.008\n173.27,4.004\n173.42,4.002\n173.57,4.000\n173.78,3.998\n173.96,3.997\n174.14,3.998\n174.31,4.000\n174.48,4.004\n174.63,4.011\n174.82,4.021\n174.97,4.030\n175.12,4.041\n175.28,4.052\n175.38,4.060\n175.53,4.069\n175.74,4.081\n175.95,4.091\n176.19,4.100\n176.33,4.102\n176.45,4.098\n176.55,4.093\n176.67,4.085\n176.84,4.069\n177.02,4.052\n177.19,4.036\n177.36,4.021\n177.53,4.008\n177.71,3.997\n177.88,3.986\n178.05,3.977\n178.23,3.970\n178.38,3.967\n178.58,3.964\n178.79,3.963\n178.94,3.961\n179.12,3.960\n179.29,3.959\n179.48,3.957\n179.63,3.955\n179.82,3.953\n180.00,3.953\n180.19,3.956\n180.36,3.959\n180.58,3.963\n180.71,3.964\n180.90,3.964\n181.07,3.959\n181.26,3.953\n181.41,3.948\n181.56,3.942\n181.80,3.936\n181.98,3.931\n182.18,3.928\n182.35,3.926\n182.53,3.926\n182.75,3.928\n182.90,3.931\n183.08,3.937\n183.27,3.941\n183.46,3.944\n183.64,3.944\n183.82,3.942\n184.01,3.937\n184.18,3.930\n184.38,3.921\n184.57,3.915\n184.76,3.909\n184.95,3.904\n185.19,3.897\n185.37,3.892\n185.51,3.887\n185.69,3.882\n185.81,3.879\n185.96,3.876\n186.20,3.871\n186.47,3.867\n186.66,3.865\n186.82,3.866\n187.06,3.869\n187.23,3.876\n187.43,3.887\n187.66,3.907\n187.81,3.920\n188.00,3.935\n188.20,3.942\n188.40,3.942\n188.59,3.937\n188.79,3.928\n188.96,3.920\n189.14,3.913\n189.38,3.901\n189.58,3.893\n189.80,3.886\n189.97,3.880\n190.16,3.875\n190.36,3.872\n190.57,3.871\n190.78,3.868\n190.99,3.867\n191.19,3.864\n191.38,3.860\n191.55,3.852\n191.78,3.843\n191.98,3.838\n192.19,3.835\n192.41,3.836\n192.65,3.840\n192.80,3.843\n193.00,3.849\n193.21,3.854\n193.31,3.858\n193.41,3.860\n193.51,3.858\n193.62,3.854\n193.83,3.847\n194.03,3.838\n194.24,3.827\n194.45,3.816\n194.67,3.802\n194.87,3.788\n195.08,3.777\n195.29,3.766\n195.52,3.751\n195.71,3.733\n195.92,3.711\n196.13,3.689\n196.34,3.662\n196.55,3.640\n196.77,3.629\n196.98,3.607\n197.19,3.579\n197.41,3.557\n197.62,3.535\n197.79,3.523\n198.05,3.513\n198.27,3.513\n198.50,3.515\n198.70,3.508\n198.92,3.496\n199.14,3.480\n199.36,3.458\n199.58,3.436\n199.80,3.403\n200.02,3.370\n200.24,3.332\n200.46,3.299\n200.68,3.277\n200.90,3.249\n201.05,3.232\n201.30,3.207\n201.50,3.183\n201.79,3.150\n202.02,3.128\n202.24,3.112\n202.47,3.089\n202.69,3.067\n202.87,3.053\n203.07,3.040\n203.37,3.018\n203.60,3.001\n203.83,2.985\n204.06,2.968\n204.28,2.956\n204.48,2.948\n204.70,2.940\n204.95,2.933\n205.16,2.927\n205.45,2.919\n205.68,2.913\n205.91,2.908\n206.13,2.906\n206.38,2.902\n206.61,2.902\n206.85,2.902\n207.08,2.902\n207.32,2.902\n207.56,2.902\n207.80,2.902\n208.03,2.902\n208.27,2.905\n208.51,2.908\n208.75,2.913\n208.96,2.919\n209.22,2.918\n209.47,2.916\n209.71,2.914\n209.96,2.908\n210.20,2.902\n210.44,2.891\n210.69,2.880\n210.90,2.866\n211.18,2.842\n211.42,2.809\n211.67,2.781\n211.92,2.754\n212.16,2.732\n212.41,2.715\n212.66,2.699\n212.87,2.687\n213.16,2.677\n213.41,2.671\n213.66,2.666\n213.93,2.661\n214.16,2.655\n214.42,2.649\n214.67,2.644\n214.93,2.638\n215.18,2.633\n215.43,2.627\n215.69,2.622\n215.94,2.615\n216.20,2.605\n216.46,2.594\n216.72,2.583\n216.98,2.572\n217.27,2.558\n217.50,2.545\n217.76,2.528\n218.02,2.517\n218.26,2.505\n218.55,2.495\n218.81,2.484\n219.07,2.468\n219.31,2.459\n219.60,2.451\n219.87,2.446\n220.13,2.440\n220.40,2.435\n220.67,2.429\n220.94,2.426\n221.21,2.424\n221.52,2.421\n221.79,2.417\n222.02,2.412\n222.27,2.406\n222.58,2.394\n222.83,2.380\n223.11,2.363\n223.38,2.341\n223.66,2.319\n223.93,2.292\n224.21,2.270\n224.36,2.255\n224.64,2.226\n225.04,2.182\n225.24,2.161\n225.56,2.119\n225.88,2.077\n226.11,2.050\n226.40,2.010\n226.63,1.982\n226.76,1.969\n226.87,1.956\n##END=\n'