b'##TITLE=Methane, bromodifluoro-\n##JCAMP-DX=4.24\n##DATA TYPE=UV/VIS SPECTRUM\n##ORIGIN=INSTITUTE OF ENERGY PROBLEMS OF CHEMICAL PHYSICS, RAS\n##OWNER=INEP CP RAS, NIST OSRD\nCollection (C) 2007 copyright by the U.S. Secretary of Commerce\non behalf of the United States of America. All rights reserved.\n##CAS REGISTRY NO=1511-62-2\n##MOLFORM=CHBrF2\n##MP=- 14.5\n##SOURCE REFERENCE=RAS UV No. 9223\n##$NIST SQUIB=1951DAV467\n##$NIST SOURCE=TYUGLMTE\n##SPECTROMETER/DATA SYSTEM=Beckman DU\n##XUNITS=Wavelength (nm)\n##YUNITS=Logarithm epsilon\n##XFACTOR=1.0\n##YFACTOR=1.0\n##FIRSTX=205.22\n##LASTX=251.11\n##FIRSTY=1.783\n##MAXX=251.11\n##MINX=205.22\n##MAXY=1.783\n##MINY=-0.778\n##NPOINTS=86\n##$REF AUTHOR=Davidson, N.\n##$REF JOURNAL=J. Am. Chem. Soc\n##$REF VOLUME=73\n##$REF PAGE=467\n##$REF DATE=1951\n##XYPOINTS=(XY..XY)\n205.22,1.783\n205.36,1.780\n205.51,1.777\n205.66,1.777\n205.81,1.774\n205.96,1.774\n206.11,1.771\n206.26,1.771\n206.41,1.768\n206.56,1.768\n206.71,1.765\n207.00,1.744\n207.60,1.729\n208.20,1.714\n208.79,1.702\n209.39,1.687\n209.98,1.672\n210.58,1.654\n211.18,1.639\n211.77,1.624\n212.37,1.606\n212.96,1.588\n213.56,1.567\n214.16,1.555\n214.75,1.531\n215.35,1.507\n215.94,1.489\n216.54,1.462\n217.14,1.438\n217.73,1.414\n218.33,1.381\n218.92,1.366\n219.52,1.348\n220.12,1.303\n220.71,1.270\n221.31,1.246\n221.90,1.210\n222.50,1.180\n223.10,1.147\n223.69,1.117\n224.29,1.084\n224.88,1.048\n225.48,1.018\n226.08,0.982\n226.67,0.955\n227.27,0.925\n227.86,0.880\n228.46,0.844\n229.06,0.808\n229.65,0.781\n230.25,0.742\n230.84,0.703\n231.44,0.657\n232.04,0.621\n232.63,0.588\n233.23,0.555\n233.82,0.513\n234.42,0.471\n235.02,0.432\n235.61,0.393\n236.21,0.372\n236.80,0.330\n237.40,0.267\n238.00,0.216\n238.59,0.180\n239.19,0.138\n239.78,0.090\n240.38,0.042\n240.98,-0.003\n241.57,-0.033\n242.17,-0.096\n242.76,-0.135\n243.36,-0.189\n243.96,-0.222\n244.55,-0.261\n245.15,-0.297\n245.75,-0.330\n246.34,-0.366\n246.94,-0.420\n247.53,-0.457\n248.13,-0.502\n248.73,-0.556\n249.32,-0.607\n249.92,-0.646\n250.51,-0.724\n251.11,-0.778\n##END=\n'