b'##TITLE=1,2,4,5-Tetrazine, 3,6-dimethyl-\n##JCAMP-DX=4.24\n##DATA TYPE=UV/VIS SPECTRUM\n##ORIGIN=INSTITUTE OF ENERGY PROBLEMS OF CHEMICAL PHYSICS, RAS\n##OWNER=INEP CP RAS, NIST OSRD\nCollection (C) 2007 copyright by the U.S. Secretary of Commerce\non behalf of the United States of America. All rights reserved.\n##CAS REGISTRY NO=1558-23-2\n##MOLFORM=C4H6N4\n##MP=67.5-68.5\n##SOURCE REFERENCE=RAS UV No. 17683\n##$NIST SQUIB=1977HOC/3923\n##$NIST SOURCE=TYUGLMTE\n##SPECTROMETER/DATA SYSTEM=Cary 14\n##XUNITS=Wavelength (nm)\n##YUNITS=Logarithm epsilon\n##XFACTOR=1.0\n##YFACTOR=1.0\n##FIRSTX=484.15\n##LASTX=607.32\n##FIRSTY=2.045\n##MAXX=607.32\n##MINX=484.15\n##MAXY=2.788\n##MINY=0.231\n##NPOINTS=209\n##$REF AUTHOR=Hochstrasser, R.M.; et al.\n##$REF JOURNAL=J. Am. Chem. Soc.\n##$REF VOLUME=99\n##$REF PAGE=3923\n##$REF DATE=1977\n##XYPOINTS=(XY..XY)\n484.15,2.045\n485.52,2.065\n487.45,2.100\n489.03,2.126\n489.64,2.138\n490.24,2.149\n490.85,2.161\n491.29,2.165\n492.07,2.172\n492.68,2.183\n493.29,2.194\n493.90,2.204\n494.51,2.214\n495.25,2.225\n495.73,2.234\n496.22,2.244\n496.95,2.252\n497.54,2.259\n498.26,2.267\n498.74,2.273\n499.39,2.279\n499.94,2.284\n500.54,2.291\n501.22,2.296\n501.83,2.304\n502.44,2.312\n502.94,2.319\n503.54,2.330\n504.15,2.339\n504.75,2.348\n505.45,2.360\n506.10,2.372\n506.71,2.385\n507.32,2.399\n507.93,2.405\n508.72,2.413\n509.33,2.418\n510.07,2.423\n510.57,2.427\n510.98,2.430\n511.59,2.436\n512.20,2.442\n512.68,2.447\n513.28,2.453\n514.00,2.459\n514.48,2.464\n515.08,2.472\n515.85,2.482\n516.46,2.492\n517.07,2.497\n517.68,2.503\n518.29,2.508\n518.89,2.515\n519.51,2.523\n520.24,2.536\n520.73,2.547\n521.34,2.560\n521.95,2.574\n522.56,2.578\n523.17,2.578\n523.78,2.574\n524.39,2.569\n525.00,2.565\n525.61,2.565\n526.22,2.569\n526.83,2.569\n527.44,2.574\n528.05,2.578\n528.61,2.586\n529.21,2.593\n529.88,2.603\n530.49,2.611\n531.10,2.619\n531.74,2.627\n532.34,2.635\n532.93,2.642\n533.54,2.653\n534.15,2.668\n534.76,2.681\n535.37,2.685\n535.98,2.685\n536.59,2.681\n537.20,2.674\n537.81,2.668\n538.42,2.657\n539.03,2.638\n539.64,2.635\n540.25,2.635\n540.85,2.635\n541.46,2.635\n542.07,2.638\n542.68,2.642\n543.27,2.649\n543.90,2.657\n544.35,2.671\n544.71,2.687\n545.12,2.701\n545.55,2.718\n545.91,2.732\n546.34,2.742\n546.95,2.745\n547.56,2.745\n548.17,2.742\n548.68,2.735\n549.39,2.717\n550.00,2.708\n550.61,2.695\n551.22,2.685\n551.83,2.671\n552.44,2.664\n553.05,2.657\n553.66,2.631\n554.27,2.623\n554.88,2.619\n555.49,2.619\n556.10,2.619\n556.71,2.623\n557.32,2.627\n557.93,2.631\n558.54,2.638\n559.01,2.650\n559.76,2.668\n560.37,2.688\n560.57,2.711\n560.98,2.736\n561.17,2.754\n561.53,2.772\n562.20,2.787\n562.85,2.788\n563.21,2.780\n563.45,2.766\n563.69,2.746\n563.81,2.724\n564.03,2.701\n564.41,2.672\n564.78,2.640\n565.25,2.611\n565.85,2.582\n566.46,2.556\n567.07,2.528\n567.66,2.504\n568.14,2.487\n568.90,2.465\n569.34,2.453\n570.12,2.430\n570.73,2.411\n571.34,2.405\n571.95,2.411\n572.70,2.432\n573.31,2.444\n573.78,2.459\n574.39,2.473\n574.99,2.490\n575.47,2.506\n576.07,2.524\n576.67,2.553\n577.44,2.591\n578.05,2.638\n578.59,2.666\n578.83,2.675\n579.27,2.681\n579.91,2.678\n580.15,2.669\n580.75,2.612\n581.10,2.574\n581.60,2.533\n582.08,2.503\n582.56,2.478\n583.54,2.442\n584.15,2.418\n584.84,2.378\n585.37,2.335\n586.28,2.207\n586.65,2.166\n587.20,2.113\n587.81,2.074\n588.30,2.038\n588.73,2.009\n589.30,1.964\n589.76,1.923\n590.25,1.887\n590.83,1.849\n591.16,1.832\n591.99,1.801\n592.42,1.790\n593.02,1.780\n593.90,1.765\n594.46,1.758\n595.06,1.750\n595.73,1.736\n596.38,1.723\n596.95,1.705\n597.59,1.689\n598.17,1.671\n598.79,1.656\n599.39,1.635\n599.87,1.619\n600.58,1.587\n601.22,1.552\n601.83,1.503\n602.44,1.448\n603.05,1.386\n603.66,1.313\n604.27,1.225\n604.59,1.176\n605.00,1.104\n605.63,0.974\n606.34,0.750\n607.32,0.231\n##END=\n'