b'##TITLE=4-methoxy-5-pyrimidinamine\n##JCAMP-DX=4.24\n##DATA TYPE=UV/VIS SPECTRUM\n##ORIGIN=INSTITUTE OF ENERGY PROBLEMS OF CHEMICAL PHYSICS, RAS\n##OWNER=INEP CP RAS, NIST OSRD\nCollection (C) 2007 copyright by the U.S. Secretary of Commerce\non behalf of the United States of America. All rights reserved.\n##CAS REGISTRY NO=15579-82-5\n##MOLFORM=C5H7N3O\n##MP=71-73\n##SOURCE REFERENCE=RAS UV No. 23439\n##$NIST SQUIB=1975SOL/1128\n##$NIST SOURCE=TYUGLMTE\n##SPECTROMETER/DATA SYSTEM=Hitachi EPS-3\n##XUNITS=Wavelength (nm)\n##YUNITS=Logarithm epsilon\n##XFACTOR=1.0\n##YFACTOR=1.0\n##FIRSTX=212.987\n##LASTX=304.506\n##FIRSTY=3.398\n##MAXX=304.506\n##MINX=212.987\n##MAXY=3.98\n##MINY=2.544\n##NPOINTS=65\n##$REF AUTHOR=Solovyova, N.P.; et al.\n##$REF JOURNAL=Khim. Geterosikl. Soedin.\n##$REF PAGE=1128\n##$REF DATE=1975\n##XYPOINTS=(XY..XY)\n212.987,3.398\n214.487,3.484\n215.987,3.552\n217.487,3.607\n218.987,3.657\n220.487,3.704\n221.987,3.750\n223.487,3.795\n223.501,3.795\n225.001,3.839\n226.501,3.872\n228.001,3.907\n229.501,3.940\n231.001,3.965\n231.659,3.975\n232.674,3.978\n234.174,3.980\n235.674,3.973\n237.174,3.961\n238.674,3.943\n240.174,3.919\n241.674,3.891\n243.174,3.859\n244.674,3.822\n246.136,3.782\n247.636,3.738\n249.136,3.672\n250.636,3.606\n252.136,3.551\n253.636,3.514\n255.136,3.496\n256.636,3.495\n258.136,3.507\n259.636,3.527\n261.136,3.550\n262.636,3.573\n264.136,3.594\n265.636,3.613\n267.136,3.629\n268.478,3.642\n269.978,3.665\n271.478,3.677\n272.978,3.682\n274.478,3.680\n275.978,3.674\n277.478,3.662\n278.978,3.646\n280.478,3.624\n281.978,3.595\n283.478,3.559\n284.978,3.516\n286.478,3.465\n287.978,3.407\n289.478,3.345\n289.506,3.342\n291.006,3.280\n292.506,3.204\n294.006,3.120\n295.506,3.033\n297.006,2.947\n298.506,2.865\n300.006,2.788\n301.506,2.713\n303.006,2.635\n304.506,2.544\n##END=\n'