b"##TITLE=Propane, 2-(methylthio)-\n##JCAMP-DX=4.24\n##DATA TYPE=UV/VIS SPECTRUM\n##ORIGIN=INSTITUTE OF ENERGY PROBLEMS OF CHEMICAL PHYSICS, RAS\n##OWNER=INEP CP RAS, NIST OSRD\nCollection (C) 2007 copyright by the U.S. Secretary of Commerce\non behalf of the United States of America. All rights reserved.\n##CAS REGISTRY NO=1551-21-9\n##MOLFORM=C4H10S\n##BP=84.8\n##SOURCE REFERENCE=RAS UV No. 20106\n##$NIST SQUIB=1969BOL/99\n##$NIST SOURCE=TYUGLMTE\n##SPECTROMETER/DATA SYSTEM=unknown\n##XUNITS=Wavelength (nm)\n##YUNITS=Logarithm epsilon\n##XFACTOR=1.0\n##YFACTOR=1.0\n##FIRSTX=211.99\n##LASTX=292.56\n##FIRSTY=2.75\n##MAXX=292.56\n##MINX=211.99\n##MAXY=2.942\n##MINY=0.288\n##NPOINTS=100\n##$REF AUTHOR=Bol'shakov, G.F.; et al.\n##$REF JOURNAL=Ultraviolet spectra of heteroorganic compounds\n##$REF PAGE=99\n##$REF DATE=1969\n##XYPOINTS=(XY..XY)\n211.99,2.750\n212.50,2.787\n213.01,2.825\n213.51,2.862\n214.02,2.900\n214.34,2.917\n214.82,2.931\n215.61,2.942\n216.31,2.935\n216.89,2.917\n217.40,2.883\n217.77,2.852\n218.24,2.812\n218.58,2.775\n218.92,2.737\n219.26,2.700\n219.59,2.662\n219.93,2.624\n220.10,2.587\n220.44,2.549\n220.78,2.512\n221.11,2.474\n221.62,2.437\n221.96,2.399\n222.30,2.362\n222.63,2.324\n222.97,2.287\n223.48,2.253\n223.82,2.216\n224.32,2.182\n224.66,2.145\n225.17,2.111\n225.67,2.078\n226.18,2.045\n226.69,2.011\n227.19,1.978\n227.70,1.944\n228.21,1.911\n229.05,1.878\n229.73,1.844\n230.23,1.811\n231.08,1.782\n231.75,1.748\n232.60,1.719\n233.27,1.686\n234.12,1.656\n234.96,1.623\n235.81,1.590\n236.65,1.561\n237.50,1.527\n238.51,1.498\n239.36,1.465\n240.37,1.435\n241.21,1.402\n242.23,1.373\n243.24,1.344\n244.08,1.314\n244.93,1.285\n245.94,1.260\n246.79,1.231\n247.80,1.202\n248.65,1.172\n249.66,1.147\n250.67,1.122\n251.52,1.093\n252.53,1.064\n253.54,1.039\n254.56,1.014\n255.40,0.985\n256.42,0.960\n257.43,0.935\n258.44,0.905\n259.46,0.876\n260.64,0.855\n261.65,0.830\n262.66,0.805\n263.85,0.780\n265.03,0.755\n266.04,0.730\n267.06,0.701\n268.24,0.676\n269.59,0.655\n270.77,0.630\n271.79,0.605\n272.80,0.580\n273.98,0.559\n275.16,0.538\n276.35,0.517\n277.53,0.492\n278.88,0.471\n280.23,0.451\n281.58,0.430\n282.93,0.409\n284.28,0.388\n285.64,0.367\n286.99,0.350\n288.34,0.334\n289.69,0.317\n291.04,0.300\n292.56,0.288\n##END=\n"