b'##TITLE=Ethene, 1,2-dichloro-, (E)-\n##JCAMP-DX=4.24\n##DATA TYPE=UV/VIS SPECTRUM\n##ORIGIN=INSTITUTE OF ENERGY PROBLEMS OF CHEMICAL PHYSICS, RAS\n##OWNER=INEP CP RAS, NIST OSRD\nCollection (C) 2007 copyright by the U.S. Secretary of Commerce\non behalf of the United States of America. All rights reserved.\n##CAS REGISTRY NO=156-60-5\n##MOLFORM=C2H2Cl2\n##MP=- 49.8\n##BP=48.7\n##SOURCE REFERENCE=RAS UV No. 10187\n##$NIST SQUIB=1950LAC/JDP5486\n##$NIST SOURCE=TYUGLMTE\n##SPECTROMETER/DATA SYSTEM=Beckman DU\n##XUNITS=Wavelength (nm)\n##YUNITS=Logarithm epsilon\n##XFACTOR=1.0\n##YFACTOR=1.0\n##FIRSTX=238.03\n##LASTX=254.18\n##FIRSTY=1.656\n##MAXX=254.18\n##MINX=238.03\n##MAXY=1.656\n##MINY=-0.125\n##NPOINTS=56\n##$REF AUTHOR=Lacher, J.R.; J.D.Park.\n##$REF JOURNAL=J. Am. Chem. Soc.\n##$REF VOLUME=72\n##$REF PAGE=5486\n##$REF DATE=1950\n##XYPOINTS=(XY..XY)\n238.03,1.656\n238.06,1.649\n238.11,1.641\n238.17,1.624\n238.22,1.612\n238.29,1.598\n238.38,1.580\n238.44,1.572\n238.54,1.558\n238.62,1.548\n238.69,1.540\n238.72,1.533\n238.78,1.524\n238.84,1.516\n238.99,1.498\n239.07,1.488\n239.17,1.472\n239.29,1.456\n239.43,1.442\n239.53,1.430\n239.64,1.419\n239.79,1.403\n239.93,1.388\n240.08,1.369\n240.24,1.355\n240.43,1.339\n240.57,1.326\n240.72,1.306\n240.90,1.285\n241.05,1.266\n241.23,1.246\n241.46,1.224\n241.70,1.203\n241.92,1.178\n242.15,1.153\n242.37,1.127\n242.62,1.099\n242.85,1.068\n243.08,1.036\n243.32,1.006\n243.67,0.963\n244.01,0.914\n244.29,0.878\n244.63,0.833\n245.07,0.767\n245.44,0.712\n245.91,0.644\n246.51,0.563\n247.17,0.482\n247.96,0.403\n248.91,0.317\n249.92,0.227\n250.93,0.142\n252.03,0.056\n253.04,-0.029\n254.18,-0.125\n##END=\n'