b'##TITLE=cis-1,2-Dichloroethylene\n##JCAMP-DX=4.24\n##DATA TYPE=UV/VIS SPECTRUM\n##ORIGIN=INSTITUTE OF ENERGY PROBLEMS OF CHEMICAL PHYSICS, RAS\n##OWNER=INEP CP RAS, NIST OSRD\nCollection (C) 2007 copyright by the U.S. Secretary of Commerce\non behalf of the United States of America. All rights reserved.\n##CAS REGISTRY NO=156-59-2\n##MOLFORM=C2H2Cl2\n##BP=60\n##SOURCE REFERENCE=RAS UV No. 19933\n##$NIST SQUIB=1966PER/BRAa1/4\n##$NIST SOURCE=TYUGLMTE\n##SPECTROMETER/DATA SYSTEM=Zeis PMQ II\n##XUNITS=Wavelength (nm)\n##YUNITS=Logarithm epsilon\n##XFACTOR=1.0\n##YFACTOR=1.0\n##FIRSTX=183.39\n##LASTX=235.52\n##FIRSTY=3.785\n##MAXX=235.52\n##MINX=183.39\n##MAXY=4.043\n##MINY=1.121\n##NPOINTS=122\n##$REF AUTHOR=Perkampus, H.-H.; Braunschweig, T.H.\n##$REF JOURNAL=UV atlas of organic compounds\n##$REF VOLUME=1\n##$REF PAGE=A1/4\n##$REF DATE=1966\n##XYPOINTS=(XY..XY)\n183.39,3.785\n183.47,3.787\n183.54,3.790\n183.61,3.792\n183.68,3.794\n183.76,3.796\n183.83,3.798\n183.90,3.800\n183.97,3.802\n184.05,3.805\n184.12,3.805\n184.48,3.819\n184.85,3.839\n185.22,3.851\n185.59,3.871\n185.96,3.883\n186.33,3.900\n186.71,3.913\n187.08,3.930\n187.46,3.941\n187.84,3.952\n188.22,3.962\n188.60,3.973\n188.98,3.984\n189.36,3.992\n189.75,4.003\n190.14,4.011\n190.53,4.022\n190.92,4.026\n191.31,4.033\n191.70,4.037\n192.10,4.041\n192.50,4.043\n192.90,4.043\n193.30,4.041\n193.70,4.041\n194.10,4.035\n194.51,4.030\n194.92,4.022\n195.33,4.013\n195.74,4.003\n196.15,3.992\n196.56,3.981\n196.98,3.971\n197.40,3.958\n197.82,3.941\n198.24,3.924\n198.66,3.909\n199.09,3.896\n199.51,3.883\n199.94,3.864\n200.37,3.854\n200.80,3.841\n201.24,3.828\n201.67,3.815\n202.11,3.802\n202.55,3.792\n202.99,3.779\n203.44,3.768\n203.88,3.756\n204.33,3.745\n204.78,3.732\n205.23,3.721\n205.68,3.707\n206.14,3.696\n206.60,3.683\n207.06,3.666\n207.52,3.645\n207.98,3.626\n208.45,3.604\n208.92,3.585\n209.39,3.564\n209.86,3.545\n210.33,3.521\n210.81,3.498\n211.29,3.468\n211.77,3.444\n212.25,3.417\n212.74,3.393\n213.22,3.366\n213.71,3.331\n214.21,3.299\n214.70,3.270\n215.20,3.238\n215.69,3.197\n216.20,3.165\n216.70,3.131\n217.20,3.095\n217.71,3.044\n218.22,3.005\n218.74,2.961\n219.25,2.910\n219.77,2.869\n220.29,2.829\n220.81,2.780\n221.34,2.737\n221.86,2.692\n222.39,2.628\n222.93,2.581\n223.46,2.530\n224.00,2.468\n224.54,2.417\n225.08,2.353\n225.63,2.302\n226.18,2.251\n226.73,2.187\n227.28,2.138\n227.84,2.068\n228.40,2.015\n228.96,1.955\n229.52,1.885\n230.05,1.812\n230.66,1.725\n231.23,1.635\n231.81,1.561\n232.39,1.478\n232.97,1.405\n233.55,1.334\n233.91,1.288\n234.31,1.244\n234.93,1.180\n235.52,1.121\n##END=\n'