b'##TITLE=cis-1,3-Pentadiene\n##JCAMP-DX=4.24\n##DATA TYPE=UV/VIS SPECTRUM\n##ORIGIN=INSTITUTE OF ENERGY PROBLEMS OF CHEMICAL PHYSICS, RAS\n##OWNER=INEP CP RAS, NIST OSRD\nCollection (C) 2007 copyright by the U.S. Secretary of Commerce\non behalf of the United States of America. All rights reserved.\n##CAS REGISTRY NO=1574-41-0\n##MOLFORM=C5H8\n##BP=44\n##SOURCE REFERENCE=RAS UV No. 20117\n##$NIST SQUIB=1969FIH/11\n##$NIST SOURCE=TYUGLMTE\n##SPECTROMETER/DATA SYSTEM=SF-4\n##XUNITS=Wavelength (nm)\n##YUNITS=Logarithm epsilon\n##XFACTOR=1.0\n##YFACTOR=1.0\n##FIRSTX=216.02\n##LASTX=238.73\n##FIRSTY=4.086\n##MAXX=238.73\n##MINX=216.02\n##MAXY=4.204\n##MINY=3.307\n##NPOINTS=74\n##$ADDITIONAL INFORMATION=77.5 % cis-form\n##$REF AUTHOR=Fihtengolts, V.S.; et al.\n##$REF JOURNAL=Atlas of UV Absorption Spectra of Substances Used in Synthetic Rubber Manufacture\n##$REF PAGE=11\n##$REF DATE=1969\n##XYPOINTS=(XY..XY)\n216.02,4.086\n216.10,4.087\n216.19,4.089\n216.27,4.090\n216.36,4.091\n216.44,4.091\n216.53,4.092\n216.61,4.093\n216.69,4.094\n217.03,4.102\n217.37,4.107\n217.71,4.113\n218.05,4.118\n218.39,4.125\n218.73,4.130\n219.07,4.134\n219.41,4.141\n219.75,4.144\n220.08,4.149\n220.42,4.154\n220.76,4.159\n221.10,4.163\n221.44,4.167\n221.78,4.171\n222.12,4.175\n222.46,4.180\n222.80,4.184\n223.14,4.188\n223.47,4.192\n223.81,4.196\n224.15,4.200\n224.49,4.203\n224.83,4.204\n225.17,4.202\n225.51,4.198\n225.85,4.195\n226.19,4.191\n226.53,4.186\n226.86,4.183\n227.20,4.177\n227.54,4.171\n227.88,4.166\n228.22,4.160\n228.56,4.155\n228.90,4.149\n229.24,4.143\n229.58,4.140\n229.92,4.132\n230.25,4.126\n230.59,4.119\n230.93,4.111\n231.27,4.104\n231.61,4.095\n231.95,4.086\n232.29,4.076\n232.63,4.066\n232.97,4.051\n233.31,4.042\n233.63,4.025\n233.99,3.999\n234.33,3.967\n234.70,3.927\n235.00,3.894\n235.34,3.841\n235.68,3.772\n236.02,3.717\n236.36,3.653\n236.69,3.605\n237.03,3.559\n237.37,3.508\n237.71,3.444\n238.05,3.402\n238.39,3.349\n238.73,3.307\n##END=\n'