b'##TITLE=N-Chlorodimethylamine\n##JCAMP-DX=4.24\n##DATA TYPE=UV/VIS SPECTRUM\n##ORIGIN=INSTITUTE OF ENERGY PROBLEMS OF CHEMICAL PHYSICS, RAS\n##OWNER=INEP CP RAS, NIST OSRD\nCollection (C) 2007 copyright by the U.S. Secretary of Commerce\non behalf of the United States of America. All rights reserved.\n##CAS REGISTRY NO=1585-74-6\n##MOLFORM=C2H6ClN\n##BP=46\n##SOURCE REFERENCE=RAS UV No. 10213\n##$NIST SQUIB=1949WEL/MOR3123\n##$NIST SOURCE=TYUGLMTE\n##SPECTROMETER/DATA SYSTEM=Beckman DU\n##XUNITS=Wavelength (nm)\n##YUNITS=Logarithm epsilon\n##XFACTOR=1.0\n##YFACTOR=1.0\n##FIRSTX=205.29\n##LASTX=305.67\n##FIRSTY=2.074\n##MAXX=305.67\n##MINX=205.29\n##MAXY=2.567\n##MINY=1.833\n##NPOINTS=180\n##$REF AUTHOR=Well, I.; Morris, J.C.\n##$REF JOURNAL=J. Am. Chem. Soc.\n##$REF VOLUME=71\n##$REF PAGE=3123\n##$REF DATE=1949\n##XYPOINTS=(XY..XY)\n205.29,2.074\n205.44,2.073\n205.58,2.073\n205.73,2.071\n205.87,2.069\n206.02,2.069\n206.16,2.067\n206.31,2.066\n206.45,2.062\n207.03,2.059\n207.61,2.055\n208.19,2.049\n208.77,2.046\n209.35,2.044\n209.93,2.040\n210.51,2.036\n211.09,2.035\n211.67,2.033\n212.25,2.033\n212.83,2.031\n213.41,2.031\n213.99,2.029\n214.57,2.029\n215.15,2.031\n215.73,2.033\n216.31,2.035\n216.89,2.040\n217.47,2.044\n218.06,2.051\n218.64,2.060\n219.22,2.071\n219.80,2.083\n220.38,2.093\n220.96,2.106\n221.54,2.119\n222.12,2.130\n222.70,2.143\n223.28,2.156\n223.86,2.170\n224.44,2.184\n225.02,2.196\n225.60,2.209\n226.18,2.218\n226.76,2.230\n227.34,2.242\n227.92,2.254\n228.50,2.267\n229.08,2.278\n229.66,2.286\n230.24,2.300\n230.82,2.309\n231.40,2.319\n231.98,2.329\n232.56,2.338\n233.14,2.350\n233.72,2.362\n234.30,2.372\n234.88,2.384\n235.46,2.392\n236.04,2.402\n236.62,2.412\n237.20,2.419\n237.78,2.430\n238.36,2.437\n238.94,2.446\n239.52,2.454\n240.10,2.461\n240.68,2.468\n241.26,2.477\n241.84,2.484\n242.42,2.491\n243.01,2.498\n243.59,2.503\n244.17,2.510\n244.75,2.515\n245.33,2.520\n245.91,2.525\n246.49,2.530\n247.07,2.536\n247.65,2.540\n248.23,2.544\n248.81,2.547\n249.39,2.550\n249.97,2.552\n250.55,2.555\n251.13,2.557\n251.71,2.560\n252.29,2.562\n252.87,2.563\n253.45,2.565\n254.03,2.565\n254.61,2.566\n255.19,2.567\n255.77,2.567\n256.35,2.567\n256.93,2.567\n257.51,2.567\n258.09,2.566\n258.67,2.566\n259.25,2.565\n259.83,2.565\n260.41,2.563\n260.99,2.562\n261.57,2.560\n262.15,2.558\n262.73,2.556\n263.31,2.554\n263.89,2.550\n264.47,2.547\n265.05,2.543\n265.63,2.540\n266.21,2.536\n266.79,2.531\n267.37,2.527\n267.96,2.523\n268.54,2.518\n269.12,2.514\n269.70,2.509\n270.28,2.505\n270.86,2.499\n271.44,2.495\n272.02,2.490\n272.60,2.484\n273.18,2.478\n273.76,2.472\n274.34,2.466\n274.92,2.458\n275.50,2.453\n276.08,2.446\n276.66,2.440\n277.24,2.433\n277.82,2.427\n278.40,2.421\n278.98,2.413\n279.56,2.404\n280.14,2.398\n280.72,2.390\n281.30,2.382\n281.88,2.375\n282.46,2.368\n283.04,2.361\n283.62,2.353\n284.20,2.345\n284.78,2.337\n285.36,2.329\n285.94,2.322\n286.52,2.313\n287.10,2.304\n287.68,2.295\n288.26,2.285\n288.84,2.276\n289.42,2.267\n290.00,2.258\n290.58,2.248\n291.16,2.236\n291.74,2.227\n292.32,2.218\n292.91,2.201\n293.49,2.192\n294.07,2.181\n294.65,2.167\n295.23,2.155\n295.81,2.143\n296.39,2.131\n296.97,2.119\n297.55,2.104\n298.13,2.090\n298.71,2.078\n299.29,2.062\n299.87,2.046\n300.45,2.029\n301.03,2.009\n301.61,1.991\n302.19,1.971\n302.77,1.953\n303.35,1.935\n303.93,1.913\n304.51,1.887\n305.09,1.865\n305.67,1.833\n##END=\n'