b'##TITLE=2-Thiazolamine, 4-methyl-\n##JCAMP-DX=4.24\n##DATA TYPE=UV/VIS SPECTRUM\n##ORIGIN=INSTITUTE OF ENERGY PROBLEMS OF CHEMICAL PHYSICS, RAS\n##OWNER=INEP CP RAS, NIST OSRD\nCollection (C) 2007 copyright by the U.S. Secretary of Commerce\non behalf of the United States of America. All rights reserved.\n##CAS REGISTRY NO=1603-91-4\n##MOLFORM=C4H6N2S\n##MP=45.5\n##BP=125/ 20 mm\n##SOURCE REFERENCE=RAS UV No. 20240\n##$NIST SQUIB=1969BOL/359\n##$NIST SOURCE=TYUGLMTE\n##SPECTROMETER/DATA SYSTEM=unknown\n##XUNITS=Wavelength (nm)\n##YUNITS=Logarithm epsilon\n##XFACTOR=1.0\n##YFACTOR=1.0\n##FIRSTX=211.38\n##LASTX=281.59\n##FIRSTY=3.087\n##MAXX=281.59\n##MINX=211.38\n##MAXY=3.737\n##MINY=2.985\n##NPOINTS=103\n##$REF AUTHOR=Bolshakov, G.F.; et al.\n##$REF JOURNAL=Ultraviolet Spectra of Heteroorganic Compounds\n##$REF PAGE=359\n##$REF DATE=1969\n##XYPOINTS=(XY..XY)\n211.38,3.087\n211.53,3.087\n211.68,3.087\n211.83,3.087\n211.99,3.086\n212.14,3.086\n212.36,3.086\n212.47,3.086\n212.56,3.086\n212.72,3.086\n213.11,3.086\n213.61,3.086\n214.38,3.086\n215.12,3.087\n215.87,3.087\n216.62,3.088\n217.37,3.092\n218.11,3.095\n218.86,3.098\n219.61,3.102\n220.36,3.108\n221.11,3.115\n221.86,3.122\n222.60,3.131\n223.35,3.142\n224.10,3.157\n224.85,3.168\n225.60,3.184\n226.35,3.198\n227.10,3.213\n227.84,3.227\n228.59,3.244\n229.34,3.258\n230.09,3.273\n230.84,3.286\n231.59,3.300\n232.34,3.313\n233.08,3.332\n233.83,3.347\n234.58,3.362\n235.33,3.376\n236.08,3.392\n236.83,3.405\n237.57,3.423\n238.32,3.438\n239.07,3.456\n239.82,3.473\n240.57,3.489\n241.32,3.506\n242.07,3.521\n242.81,3.536\n243.56,3.554\n244.31,3.569\n245.06,3.584\n245.81,3.598\n246.56,3.611\n247.31,3.625\n248.05,3.641\n248.80,3.658\n249.55,3.671\n250.30,3.684\n251.05,3.695\n251.80,3.704\n252.54,3.710\n253.29,3.714\n254.04,3.721\n254.79,3.726\n255.54,3.728\n256.29,3.730\n257.04,3.734\n257.78,3.736\n258.53,3.737\n259.28,3.737\n260.03,3.736\n261.38,3.731\n261.53,3.730\n262.13,3.727\n262.87,3.721\n263.62,3.714\n264.37,3.707\n265.12,3.694\n265.87,3.685\n266.62,3.672\n267.37,3.660\n268.11,3.645\n268.86,3.632\n269.61,3.612\n270.36,3.594\n271.11,3.571\n271.86,3.548\n272.60,3.521\n273.35,3.489\n274.10,3.453\n274.85,3.412\n275.60,3.377\n276.35,3.339\n277.10,3.307\n277.84,3.253\n278.59,3.204\n279.34,3.155\n280.09,3.088\n280.84,3.031\n281.59,2.985\n##END=\n'