b'##TITLE=3-Pyridinethiol\n##JCAMP-DX=4.24\n##DATA TYPE=UV/VIS SPECTRUM\n##ORIGIN=INSTITUTE OF ENERGY PROBLEMS OF CHEMICAL PHYSICS, RAS\n##OWNER=INEP CP RAS, NIST OSRD\nCollection (C) 2007 copyright by the U.S. Secretary of Commerce\non behalf of the United States of America. All rights reserved.\n##CAS REGISTRY NO=16133-26-9\n##MOLFORM=C5H5NS\n##SOURCE REFERENCE=RAS UV No. 12947\n##$NIST SQUIB=1959ALB/BAR2384\n##$NIST SOURCE=TYUGLMTE\n##SPECTROMETER/DATA SYSTEM=n.i.g.\n##XUNITS=Wavelength (nm)\n##YUNITS=Logarithm epsilon\n##XFACTOR=1.0\n##YFACTOR=1.0\n##FIRSTX=220.65\n##LASTX=422.84\n##FIRSTY=4.038\n##MAXX=422.84\n##MINX=220.65\n##MAXY=4.188\n##MINY=2.284\n##NPOINTS=107\n##$REF AUTHOR=Albert, A.; Barlin, G.B.\n##$REF JOURNAL=J. Chem. Soc.\n##$REF PAGE=2384\n##$REF DATE=1959\n##XYPOINTS=(XY..XY)\n220.65,4.038\n222.69,4.081\n224.73,4.124\n226.76,4.159\n229.09,4.188\n231.71,4.180\n234.04,4.145\n235.20,4.088\n236.36,4.031\n237.53,3.974\n238.40,3.911\n239.27,3.854\n240.15,3.790\n241.02,3.733\n241.89,3.676\n242.76,3.619\n243.35,3.555\n244.51,3.499\n245.67,3.442\n247.13,3.392\n249.16,3.349\n251.78,3.335\n253.82,3.371\n255.85,3.413\n257.31,3.463\n258.76,3.513\n260.22,3.570\n261.96,3.612\n263.42,3.669\n264.87,3.726\n266.33,3.776\n267.78,3.832\n269.53,3.882\n270.98,3.932\n273.02,3.974\n275.05,4.017\n277.09,4.060\n279.13,4.095\n281.75,4.109\n284.07,4.131\n286.69,4.131\n289.31,4.109\n291.64,4.074\n293.67,4.038\n295.42,3.989\n296.87,3.932\n298.62,3.889\n300.07,3.839\n301.82,3.790\n303.27,3.733\n304.73,3.683\n306.18,3.634\n307.35,3.577\n308.80,3.520\n309.67,3.463\n310.84,3.406\n312.58,3.357\n314.33,3.307\n316.95,3.286\n319.56,3.278\n322.18,3.286\n324.80,3.300\n327.13,3.328\n329.45,3.349\n331.78,3.371\n334.11,3.399\n336.73,3.413\n339.35,3.428\n341.96,3.442\n344.58,3.463\n347.20,3.463\n349.82,3.477\n352.44,3.477\n355.05,3.484\n357.67,3.484\n360.29,3.470\n362.91,3.456\n365.53,3.442\n368.15,3.428\n370.47,3.399\n373.09,3.378\n375.42,3.349\n377.75,3.321\n380.07,3.286\n382.11,3.250\n384.44,3.222\n386.47,3.179\n388.80,3.143\n390.84,3.101\n393.16,3.065\n395.20,3.023\n396.95,2.980\n398.69,2.938\n400.73,2.895\n402.76,2.852\n404.51,2.803\n406.25,2.760\n408.29,2.717\n410.04,2.668\n411.49,2.618\n413.53,2.575\n414.98,2.526\n416.44,2.476\n418.18,2.433\n419.93,2.384\n421.38,2.334\n422.84,2.284\n##END=\n'