b"##TITLE=2-Butanethiol, 2-methyl-\n##JCAMP-DX=4.24\n##DATA TYPE=UV/VIS SPECTRUM\n##ORIGIN=INSTITUTE OF ENERGY PROBLEMS OF CHEMICAL PHYSICS, RAS\n##OWNER=INEP CP RAS, NIST OSRD\nCollection (C) 2007 copyright by the U.S. Secretary of Commerce\non behalf of the United States of America. All rights reserved.\n##CAS REGISTRY NO=1679-09-0\n##MOLFORM=C5H12S\n##BP=99\n##SOURCE REFERENCE=RAS UV No. 20096\n##$NIST SQUIB=1969BOL/87\n##$NIST SOURCE=TYUGLMTE\n##SPECTROMETER/DATA SYSTEM=unknown\n##XUNITS=Wavelength (nm)\n##YUNITS=Logarithm epsilon\n##XFACTOR=1.0\n##YFACTOR=1.0\n##FIRSTX=215.08\n##LASTX=282.18\n##FIRSTY=2.381\n##MAXX=282.18\n##MINX=215.08\n##MAXY=2.381\n##MINY=0.03\n##NPOINTS=106\n##$REF AUTHOR=Bol'shakov, G.F.; et al.\n##$REF JOURNAL=Ultraviolet Spectra of heteroorganic compounds\n##$REF PAGE=87\n##$REF DATE=1969\n##XYPOINTS=(XY..XY)\n215.08,2.381\n215.25,2.375\n215.42,2.368\n215.59,2.360\n215.76,2.354\n215.93,2.348\n216.10,2.341\n216.27,2.333\n216.44,2.329\n217.11,2.291\n217.79,2.272\n218.47,2.247\n219.15,2.231\n219.82,2.214\n220.50,2.199\n221.18,2.191\n221.86,2.183\n222.53,2.174\n223.21,2.170\n223.89,2.164\n224.57,2.160\n225.25,2.155\n225.92,2.153\n226.60,2.145\n227.28,2.141\n227.96,2.132\n228.63,2.128\n229.31,2.124\n229.99,2.116\n230.67,2.107\n231.35,2.103\n232.02,2.095\n232.70,2.084\n233.38,2.076\n234.06,2.066\n234.73,2.057\n235.41,2.047\n236.09,2.036\n236.77,2.026\n237.44,2.016\n238.12,2.005\n238.80,1.995\n239.48,1.984\n240.16,1.974\n240.83,1.959\n241.51,1.947\n242.19,1.930\n242.87,1.917\n243.54,1.899\n244.22,1.880\n244.90,1.867\n245.58,1.848\n246.26,1.828\n246.93,1.807\n247.61,1.786\n248.29,1.761\n248.97,1.738\n249.64,1.717\n250.32,1.688\n251.00,1.661\n251.68,1.631\n252.36,1.600\n253.03,1.573\n253.71,1.537\n254.39,1.502\n255.07,1.460\n255.74,1.427\n256.42,1.383\n257.10,1.339\n257.74,1.298\n258.44,1.255\n259.13,1.203\n259.79,1.151\n260.49,1.103\n261.17,1.042\n261.84,0.986\n262.52,0.934\n263.20,0.896\n263.88,0.846\n264.55,0.794\n265.25,0.749\n265.91,0.702\n266.59,0.652\n267.27,0.614\n267.94,0.560\n268.65,0.517\n269.30,0.472\n269.98,0.437\n270.65,0.397\n271.33,0.358\n272.01,0.326\n272.69,0.289\n273.37,0.249\n274.04,0.211\n274.72,0.184\n275.40,0.147\n276.08,0.115\n276.75,0.094\n277.43,0.078\n278.11,0.065\n278.79,0.055\n279.46,0.046\n280.14,0.040\n280.82,0.034\n281.50,0.032\n282.18,0.030\n##END=\n"