b"##TITLE=1-Propanethiol, 2,2-dimethyl-\n##JCAMP-DX=4.24\n##DATA TYPE=UV/VIS SPECTRUM\n##ORIGIN=INSTITUTE OF ENERGY PROBLEMS OF CHEMICAL PHYSICS, RAS\n##OWNER=INEP CP RAS, NIST OSRD\nCollection (C) 2007 copyright by the U.S. Secretary of Commerce\non behalf of the United States of America. All rights reserved.\n##CAS REGISTRY NO=1679-08-9\n##MOLFORM=C5H12S\n##SOURCE REFERENCE=RAS UV No. 20094\n##$NIST SQUIB=1969BOL/85\n##$NIST SOURCE=TYUGLMTE\n##SPECTROMETER/DATA SYSTEM=unknown\n##XUNITS=Wavelength (nm)\n##YUNITS=Logarithm epsilon\n##XFACTOR=1.0\n##YFACTOR=1.0\n##FIRSTX=209.68\n##LASTX=278.97\n##FIRSTY=2.14\n##MAXX=278.97\n##MINX=209.68\n##MAXY=2.14\n##MINY=0.592\n##NPOINTS=126\n##$REF AUTHOR=Bol'shakov, G.F.; et al.\n##$REF JOURNAL=Ultraviolet spectra of heteroorganic compounds\n##$REF PAGE=85\n##$REF DATE=1969\n##XYPOINTS=(XY..XY)\n209.68,2.140\n209.85,2.138\n210.02,2.138\n210.19,2.135\n210.36,2.135\n210.53,2.133\n210.70,2.131\n210.87,2.131\n211.04,2.129\n211.21,2.129\n211.38,2.127\n211.55,2.127\n211.72,2.125\n211.89,2.123\n212.06,2.123\n212.23,2.121\n212.40,2.121\n212.57,2.119\n212.74,2.119\n212.91,2.117\n213.08,2.115\n213.25,2.115\n213.42,2.113\n213.59,2.113\n213.76,2.110\n213.93,2.110\n214.10,2.108\n214.27,2.106\n214.44,2.106\n214.61,2.104\n214.78,2.104\n215.12,2.096\n215.79,2.094\n216.47,2.085\n217.15,2.081\n217.83,2.075\n218.51,2.067\n219.19,2.063\n219.87,2.056\n220.55,2.050\n221.23,2.044\n221.91,2.040\n222.59,2.033\n223.27,2.025\n223.95,2.017\n224.63,2.006\n225.30,2.002\n225.98,1.994\n226.66,1.983\n227.34,1.975\n228.02,1.965\n228.70,1.954\n229.38,1.942\n230.06,1.929\n230.74,1.917\n231.42,1.906\n232.10,1.896\n232.78,1.879\n233.46,1.867\n234.14,1.856\n234.82,1.840\n235.49,1.829\n236.17,1.811\n236.85,1.796\n237.53,1.779\n238.21,1.761\n238.89,1.744\n239.57,1.727\n240.25,1.706\n240.93,1.690\n241.61,1.669\n242.29,1.652\n242.97,1.631\n243.65,1.611\n244.33,1.590\n245.01,1.563\n245.68,1.542\n246.36,1.513\n247.04,1.492\n247.72,1.463\n248.40,1.440\n249.08,1.415\n249.76,1.388\n250.44,1.365\n251.12,1.338\n251.80,1.319\n252.48,1.294\n253.16,1.269\n253.84,1.246\n254.52,1.223\n255.20,1.196\n255.87,1.175\n256.55,1.157\n257.23,1.134\n257.91,1.109\n258.59,1.088\n259.27,1.067\n259.95,1.046\n260.63,1.025\n261.31,1.007\n261.99,0.992\n262.67,0.975\n263.35,0.954\n264.03,0.934\n264.71,0.913\n265.39,0.896\n266.06,0.877\n266.74,0.857\n267.42,0.838\n268.10,0.825\n268.78,0.807\n269.46,0.792\n270.14,0.775\n270.82,0.757\n271.50,0.742\n272.18,0.725\n272.86,0.713\n273.54,0.696\n274.22,0.684\n274.90,0.671\n275.58,0.655\n276.25,0.644\n276.93,0.632\n277.61,0.617\n278.29,0.605\n278.97,0.592\n##END=\n"