b'##TITLE=2,4-Diazido-6-methylpyrimidine\n##JCAMP-DX=4.24\n##DATA TYPE=UV/VIS SPECTRUM\n##ORIGIN=INSTITUTE OF ENERGY PROBLEMS OF CHEMICAL PHYSICS, RAS\n##OWNER=INEP CP RAS, NIST OSRD\nCollection (C) 2007 copyright by the U.S. Secretary of Commerce\non behalf of the United States of America. All rights reserved.\n##CAS REGISTRY NO=1680-11-1\n##MOLFORM=C5H4N8\n##MP=126-126.5\n##SOURCE REFERENCE=RAS UV No. 12100\n##$NIST SQUIB=1954BEN/OTT1858\n##$NIST SOURCE=TYUGLMTE\n##SPECTROMETER/DATA SYSTEM=Beckman DU\n##XUNITS=Wavelength (nm)\n##YUNITS=Logarithm epsilon\n##XFACTOR=1.0\n##YFACTOR=1.0\n##FIRSTX=215.51\n##LASTX=299.84\n##FIRSTY=3.888\n##MAXX=299.84\n##MINX=215.51\n##MAXY=4.347\n##MINY=3.4\n##NPOINTS=181\n##$REF AUTHOR=Benson, F.R.; Otten, E.A.\n##$REF JOURNAL=J. Am. Chem. Soc.\n##$REF VOLUME=76\n##$REF PAGE=1858\n##$REF DATE=1954\n##XYPOINTS=(XY..XY)\n215.51,3.888\n215.67,3.888\n215.83,3.888\n215.99,3.890\n216.15,3.890\n216.31,3.890\n216.47,3.891\n216.63,3.891\n216.79,3.891\n216.95,3.893\n217.11,3.893\n217.27,3.893\n217.43,3.893\n217.59,3.895\n217.75,3.895\n217.91,3.895\n218.39,3.895\n218.87,3.900\n219.34,3.901\n219.82,3.906\n220.30,3.911\n220.78,3.916\n221.26,3.919\n221.74,3.927\n222.22,3.932\n222.70,3.942\n223.18,3.945\n223.66,3.951\n224.14,3.961\n224.61,3.971\n225.09,3.981\n225.57,3.994\n226.05,4.000\n226.53,4.021\n227.01,4.040\n227.49,4.073\n227.97,4.097\n228.45,4.117\n228.93,4.136\n229.41,4.157\n229.89,4.178\n230.36,4.198\n230.84,4.217\n231.32,4.238\n231.80,4.254\n232.28,4.270\n232.76,4.285\n233.24,4.300\n233.72,4.309\n234.20,4.317\n234.68,4.330\n235.16,4.330\n235.64,4.335\n236.11,4.338\n236.59,4.340\n237.07,4.342\n237.55,4.347\n238.03,4.347\n238.51,4.347\n238.99,4.343\n239.47,4.345\n239.95,4.338\n240.43,4.332\n240.91,4.324\n241.38,4.309\n241.86,4.295\n242.34,4.279\n242.82,4.256\n243.30,4.240\n243.78,4.191\n244.26,4.149\n244.74,4.100\n245.22,4.058\n245.70,4.010\n246.18,3.977\n246.66,3.958\n247.13,3.940\n247.61,3.926\n248.09,3.911\n248.57,3.896\n249.05,3.887\n249.53,3.874\n250.01,3.864\n250.49,3.854\n250.97,3.846\n251.45,3.836\n251.93,3.832\n252.41,3.823\n252.88,3.819\n253.36,3.815\n254.32,3.809\n254.80,3.807\n255.28,3.806\n255.76,3.804\n256.24,3.804\n256.72,3.804\n257.20,3.804\n257.68,3.806\n258.15,3.807\n259.11,3.811\n259.59,3.811\n260.07,3.814\n260.55,3.817\n261.03,3.819\n261.51,3.823\n261.99,3.823\n262.47,3.825\n262.95,3.828\n263.43,3.832\n263.90,3.835\n264.38,3.838\n264.86,3.841\n265.34,3.843\n265.82,3.848\n266.78,3.854\n267.26,3.859\n267.74,3.859\n268.22,3.864\n268.70,3.872\n269.18,3.872\n269.65,3.877\n270.13,3.880\n270.61,3.885\n271.09,3.888\n271.57,3.893\n272.05,3.898\n272.53,3.903\n273.49,3.911\n273.97,3.917\n274.45,3.921\n275.40,3.932\n275.88,3.935\n276.36,3.940\n276.84,3.943\n277.32,3.948\n277.80,3.950\n278.28,3.951\n278.76,3.955\n279.24,3.956\n279.72,3.955\n280.67,3.951\n281.15,3.950\n281.63,3.948\n282.11,3.947\n283.07,3.938\n283.55,3.934\n284.03,3.927\n284.51,3.924\n284.99,3.917\n285.47,3.911\n285.95,3.903\n286.42,3.903\n286.90,3.890\n287.38,3.885\n287.86,3.879\n288.34,3.869\n288.82,3.862\n289.30,3.854\n289.78,3.846\n290.26,3.838\n290.74,3.830\n291.22,3.825\n291.69,3.811\n292.17,3.802\n292.65,3.801\n293.13,3.783\n293.61,3.772\n294.09,3.760\n294.57,3.747\n295.05,3.741\n295.53,3.721\n296.01,3.707\n296.49,3.691\n296.97,3.671\n297.44,3.655\n297.92,3.631\n298.40,3.597\n298.88,3.548\n299.36,3.500\n299.68,3.400\n299.84,3.451\n##END=\n'