b'##TITLE=6-Chloro-2-pyridinol\n##JCAMP-DX=4.24\n##DATA TYPE=UV/VIS SPECTRUM\n##ORIGIN=INSTITUTE OF ENERGY PROBLEMS OF CHEMICAL PHYSICS, RAS\n##OWNER=INEP CP RAS, NIST OSRD\nCollection (C) 2007 copyright by the U.S. Secretary of Commerce\non behalf of the United States of America. All rights reserved.\n##CAS REGISTRY NO=16879-02-0\n##MOLFORM=C5H4ClNO\n##SOURCE REFERENCE=RAS UV No. 3981\n##$NIST SQUIB=1967KAT/ROW758-761\n##$NIST SOURCE=TSGMTE\n##SPECTROMETER/DATA SYSTEM=Perkin-Elmer spectrophotometer\n##XUNITS=Wavelength (nm)\n##YUNITS=Logarithm epsilon\n##XFACTOR=1.000000\n##YFACTOR=1.000000\n##FIRSTX=200.6023\n##LASTX=320.0770\n##FIRSTY=3.26865\n##MAXX=320.077\n##MINX=200.602\n##MAXY=3.85796\n##MINY=2.00617\n##NPOINTS=859\n##$REF AUTHOR=Katritzky, A.R.; Rowe, J.D.; Roy, S.K.\n##$REF TITLE=Potentially tautomeric pyridines. Part IX. The effect of chlorine substituents on pyridone-hydroxypyridine tautomerism\n##$REF JOURNAL=J. Chem. Soc. B:\n##$REF PAGE=758-761\n##$REF DATE=1967\n##XYPOINTS=(XY..XY)\n200.6023,3.268648\n200.6065,3.272623\n200.8086,3.261521\n200.8124,3.265054\n201.0182,3.257484\n201.0224,3.261459\n201.2551,3.253882\n201.2588,3.257415\n201.4651,3.250287\n201.4689,3.253820\n201.6710,3.242718\n201.6790,3.250225\n201.8811,3.239123\n201.8849,3.242656\n202.1217,3.239053\n202.5376,3.227889\n202.5414,3.231422\n202.7740,3.223845\n202.7782,3.227820\n203.1979,3.220188\n203.2017,3.223721\n205.2026,3.219609\n205.4469,3.223072\n205.6607,3.223010\n206.3407,3.233857\n206.3449,3.237832\n206.5587,3.237770\n206.8030,3.241234\n207.0168,3.241172\n207.0206,3.244705\n207.2344,3.244643\n207.2386,3.248617\n207.7005,3.255552\n207.9143,3.255490\n207.9186,3.259465\n208.1629,3.262928\n208.1666,3.266461\n208.3846,3.270374\n208.3884,3.273907\n208.6022,3.273845\n208.6139,3.284885\n208.8582,3.288349\n208.8624,3.292323\n209.0763,3.292261\n209.0880,3.303302\n209.3055,3.306773\n209.3093,3.310306\n209.5273,3.314219\n209.5390,3.325259\n209.7796,3.325189\n209.7833,3.328722\n210.0009,3.332194\n210.0088,3.339701\n210.2264,3.343172\n210.2381,3.354213\n210.4787,3.354143\n210.4829,3.358118\n210.7005,3.361589\n210.7042,3.365122\n210.9180,3.365060\n210.9260,3.372567\n211.1708,3.376472\n211.1745,3.380005\n211.3921,3.383476\n211.4000,3.390984\n211.6176,3.394455\n211.6218,3.398429\n211.8624,3.398360\n211.8699,3.405426\n212.0879,3.409339\n212.0954,3.416404\n212.3092,3.416343\n212.3134,3.420317\n212.5577,3.423781\n212.5657,3.431288\n212.7795,3.431226\n212.7870,3.438292\n213.0051,3.442205\n213.0088,3.445738\n213.4711,3.453114\n213.4749,3.456647\n213.6887,3.456585\n213.6925,3.460118\n213.9372,3.464023\n213.9410,3.467556\n214.1586,3.471027\n214.1628,3.475001\n214.3803,3.478473\n214.3841,3.482006\n214.6289,3.485911\n214.8427,3.485849\n214.8464,3.489382\n215.0640,3.492853\n215.0682,3.496827\n215.3088,3.496758\n215.3125,3.500291\n215.9924,3.511138\n215.9962,3.514671\n216.2100,3.514609\n216.2180,3.522117\n216.4318,3.522055\n217.1117,3.532902\n217.3256,3.532840\n217.3298,3.536815\n217.7842,3.536683\n218.0017,3.540154\n219.5788,3.539698\n219.7889,3.536104\n219.9985,3.532067\n220.0027,3.536042\n220.2353,3.528465\n220.2390,3.531998\n220.4491,3.528403\n221.5521,3.509530\n221.7622,3.505935\n221.7659,3.509468\n221.9681,3.498366\n221.9760,3.505874\n222.2007,3.490789\n222.2049,3.494764\n222.6167,3.479625\n222.6209,3.483600\n222.8497,3.472490\n222.8535,3.476022\n223.0556,3.464920\n223.0593,3.468453\n223.2540,3.450285\n223.2657,3.461325\n223.4904,3.446241\n223.7004,3.442646\n223.7042,3.446179\n223.8988,3.428011\n223.9105,3.439051\n224.1277,3.416901\n224.1352,3.423967\n224.3256,3.401824\n224.3373,3.412864\n224.5278,3.390722\n224.5357,3.398229\n224.7262,3.376087\n224.7379,3.387127\n224.9588,3.368509\n224.9630,3.372484\n225.1609,3.357407\n225.1689,3.364915\n225.3631,3.346305\n225.3747,3.357345\n225.5882,3.331662\n225.5999,3.342702\n225.7903,3.320560\n225.7978,3.327626\n225.9882,3.305483\n225.9999,3.316523\n226.2096,3.287307\n226.2251,3.301880\n226.4118,3.276205\n226.4235,3.287245\n226.6139,3.265102\n226.6214,3.272168\n226.8428,3.253992\n226.8545,3.265033\n227.0449,3.242890\n227.0566,3.253931\n227.2508,3.235321\n227.2545,3.238854\n227.4797,3.224211\n227.4876,3.231718\n227.6855,3.216642\n227.6897,3.220616\n227.8839,3.202006\n227.8956,3.213047\n228.1165,3.194429\n228.1203,3.197962\n228.3149,3.179794\n228.3266,3.190834\n228.5246,3.175758\n228.5288,3.179732\n228.7459,3.157582\n228.7614,3.172155\n228.9439,3.142505\n228.9556,3.153545\n229.1460,3.131403\n229.1540,3.138910\n229.3749,3.120293\n229.3828,3.127800\n229.5653,3.098150\n229.5850,3.116698\n229.7674,3.087048\n229.7754,3.094555\n229.9846,3.064897\n230.0043,3.083445\n230.1830,3.050262\n230.1947,3.061302\n230.3809,3.035185\n230.3926,3.046226\n230.6023,3.017009\n230.6178,3.031583\n230.7965,2.998400\n230.8119,3.012973\n230.9907,2.979790\n231.0066,2.994805\n231.2079,2.957639\n231.2275,2.976187\n231.4100,2.946537\n231.4217,2.957577\n231.5967,2.920861\n231.6201,2.942942\n231.7951,2.906226\n231.8068,2.917267\n232.0240,2.895116\n232.0314,2.902182\n232.2181,2.876506\n232.2336,2.891080\n232.4086,2.854364\n232.4278,2.872470\n232.6375,2.843254\n232.6449,2.850320\n232.8316,2.824644\n232.8471,2.839217\n233.0300,2.810009\n233.0417,2.821049\n233.2510,2.791391\n233.2664,2.805965\n233.4451,2.772781\n233.4610,2.787796\n233.6356,2.750639\n233.6552,2.769187\n233.8607,2.735996\n233.8724,2.747036\n234.0586,2.720919\n234.0703,2.731959\n234.2533,2.702751\n234.2687,2.717324\n234.4662,2.676626\n234.4896,2.698707\n234.6646,2.661991\n234.6801,2.676564\n234.8588,2.643381\n234.8747,2.658396\n235.0919,2.636245\n235.0994,2.643311\n235.2861,2.617635\n235.3015,2.632209\n235.4845,2.603000\n235.4962,2.614041\n235.7091,2.587916\n235.7208,2.598956\n235.9113,2.576813\n235.9192,2.584321\n236.1097,2.562178\n236.1214,2.573219\n236.3343,2.547094\n236.3460,2.558134\n236.5365,2.535991\n236.5444,2.543499\n236.7386,2.524889\n236.7466,2.532397\n236.9675,2.513779\n236.9754,2.521287\n237.1659,2.499144\n237.1776,2.510184\n237.3680,2.488042\n237.3760,2.495549\n237.5814,2.462358\n237.6048,2.484439\n237.7836,2.451256\n237.7953,2.462296\n237.9857,2.440154\n237.9932,2.447220\n238.2221,2.436110\n238.4046,2.406459\n238.4242,2.425007\n238.5992,2.388291\n238.6146,2.402865\n238.8013,2.377189\n238.8088,2.384255\n239.0260,2.362104\n239.0377,2.373145\n239.2281,2.351002\n239.2361,2.358510\n239.4345,2.343874\n239.4382,2.347407\n239.6591,2.328790\n239.6708,2.339830\n239.8613,2.317688\n239.8692,2.325195\n240.0597,2.303052\n240.0714,2.314093\n240.2923,2.295475\n240.3002,2.302983\n240.4907,2.280840\n240.5024,2.291881\n240.6891,2.266205\n240.7008,2.277245\n240.9137,2.251120\n240.9296,2.266135\n241.1159,2.240018\n241.1276,2.251059\n241.3143,2.225383\n241.3260,2.236423\n241.5314,2.203232\n241.5506,2.221339\n241.7256,2.184622\n241.7453,2.203171\n241.9278,2.173520\n241.9395,2.184561\n242.1487,2.154903\n242.1646,2.169918\n242.3471,2.140268\n242.3588,2.151308\n242.5455,2.125633\n242.5609,2.140206\n242.7781,2.118055\n242.7818,2.121588\n242.9643,2.091938\n242.9882,2.114461\n243.1664,2.080836\n243.1744,2.088343\n243.3916,2.066193\n243.4033,2.077233\n243.5900,2.051558\n243.6017,2.062598\n244.0284,2.036411\n244.0364,2.043919\n244.2385,2.032817\n244.2423,2.036349\n244.6812,2.021644\n244.6850,2.025178\n244.8871,2.014075\n244.8913,2.018050\n245.1010,2.014013\n245.3110,2.010419\n245.7654,2.010287\n245.9755,2.006692\n247.7664,2.006175\n247.9840,2.009646\n248.4383,2.009514\n248.4421,2.013047\n248.9044,2.020423\n248.9082,2.023956\n249.1262,2.027869\n249.1300,2.031402\n249.3475,2.034873\n249.3555,2.042381\n249.5998,2.045844\n249.6662,2.108554\n250.1369,2.149059\n250.1603,2.171140\n250.2329,2.012529\n250.4046,2.174603\n250.4280,2.196684\n250.6535,2.207663\n250.6695,2.222678\n251.1393,2.237120\n251.1589,2.255668\n251.3728,2.255606\n251.4041,2.285194\n251.6217,2.288665\n251.6413,2.307213\n251.8856,2.310677\n251.8973,2.321717\n252.1149,2.325188\n252.6123,2.365685\n252.6395,2.391299\n252.8533,2.391237\n252.8692,2.406252\n253.0830,2.406191\n253.0985,2.420764\n253.3203,2.428210\n253.3554,2.461331\n253.5959,2.461262\n253.6114,2.475835\n253.8411,2.490788\n253.8762,2.523909\n254.0937,2.527380\n254.1092,2.541954\n254.3540,2.545859\n254.3731,2.563965\n254.5912,2.567878\n254.6183,2.593492\n254.8364,2.597404\n254.8518,2.611978\n255.0961,2.615441\n255.1120,2.630456\n255.3296,2.633927\n255.3450,2.648501\n255.5631,2.652413\n255.8228,2.670450\n255.8541,2.700039\n256.0717,2.703510\n256.0951,2.725591\n256.3132,2.729503\n256.3365,2.751584\n256.5851,2.759022\n256.5968,2.770062\n256.8143,2.773534\n256.8181,2.777067\n257.0361,2.780979\n257.0399,2.784512\n257.0595,2.803060\n257.0866,2.828674\n257.3309,2.832137\n257.3469,2.847152\n257.5761,2.861664\n257.5841,2.869171\n257.7979,2.869110\n257.8133,2.883683\n258.0539,2.883613\n258.0815,2.909669\n258.2991,2.913140\n258.3070,2.920648\n258.5209,2.920586\n258.5443,2.942667\n258.7886,2.946130\n258.7965,2.953637\n259.0103,2.953576\n259.0258,2.968149\n259.2434,2.971620\n259.2593,2.986635\n259.5036,2.990098\n259.5153,3.001139\n259.7328,3.004610\n259.7371,3.008585\n259.9546,3.012056\n259.9663,3.023096\n260.2106,3.026559\n260.2265,3.041574\n260.4441,3.045046\n260.4558,3.056086\n260.6738,3.059999\n260.6813,3.067065\n260.9261,3.070970\n260.9298,3.074503\n261.1474,3.077974\n261.1516,3.081948\n261.3692,3.085419\n261.3809,3.096460\n261.6027,3.103905\n261.6102,3.110971\n261.8549,3.114876\n261.8624,3.121942\n262.0805,3.125855\n262.0880,3.132921\n262.5700,3.158845\n262.7875,3.162316\n262.7913,3.165849\n263.0093,3.169762\n263.0131,3.173295\n263.2574,3.176758\n263.2653,3.184265\n263.4829,3.187737\n263.4908,3.195244\n263.7084,3.198715\n263.7164,3.206223\n263.9611,3.210128\n263.9766,3.224701\n264.1904,3.224639\n264.1984,3.232147\n264.4159,3.235618\n264.4239,3.243125\n264.6682,3.246589\n264.6762,3.254096\n264.8937,3.257567\n264.9017,3.265075\n265.1193,3.268546\n265.1230,3.272079\n265.3678,3.275984\n265.3715,3.279517\n265.5891,3.282988\n265.5970,3.290495\n265.8146,3.293967\n265.8188,3.297941\n266.0631,3.301404\n266.0669,3.304937\n266.2849,3.308850\n266.2887,3.312383\n266.5062,3.315854\n266.5142,3.323362\n266.7585,3.326825\n266.7627,3.330800\n266.9803,3.334271\n266.9882,3.341778\n267.2058,3.345249\n267.2095,3.348782\n267.4501,3.348713\n267.4623,3.360195\n267.6761,3.360133\n267.6836,3.367199\n267.8974,3.367137\n267.9054,3.374645\n268.1497,3.378108\n268.1539,3.382082\n268.3677,3.382021\n268.3752,3.389086\n268.5890,3.389025\n268.6007,3.400065\n268.8413,3.399996\n268.8455,3.403970\n269.0631,3.407441\n269.0710,3.414949\n269.2849,3.414887\n269.2924,3.421953\n269.5104,3.425865\n269.5141,3.429398\n269.7584,3.432862\n269.7627,3.436836\n269.9802,3.440307\n269.9882,3.447815\n270.2020,3.447753\n270.2095,3.454819\n270.4543,3.458724\n270.4618,3.465790\n270.6756,3.465728\n270.6835,3.473236\n270.8974,3.473174\n270.9053,3.480681\n271.1496,3.484145\n271.1534,3.487678\n271.3714,3.491590\n271.3789,3.498656\n271.5927,3.498594\n271.6007,3.506102\n271.8412,3.506032\n271.8492,3.513540\n272.0668,3.517011\n272.0710,3.520985\n272.2886,3.524457\n272.2965,3.531964\n272.7584,3.538899\n272.7663,3.546406\n272.9802,3.546344\n272.9881,3.553852\n273.2324,3.557315\n273.2362,3.560848\n273.4542,3.564761\n273.4580,3.568294\n273.6755,3.571765\n273.6798,3.575739\n273.9241,3.579203\n273.9320,3.586710\n274.1496,3.590181\n274.1533,3.593714\n274.3672,3.593652\n274.3751,3.601160\n274.6194,3.604623\n274.6236,3.608598\n274.8412,3.612069\n274.8449,3.615602\n275.0630,3.619515\n275.0667,3.623048\n275.3110,3.626511\n275.3152,3.630486\n275.5328,3.633957\n275.5366,3.637490\n275.7546,3.641402\n275.7583,3.644935\n276.0027,3.648399\n276.0069,3.652373\n276.2244,3.655844\n276.2282,3.659377\n276.4462,3.663290\n276.4500,3.666823\n276.6905,3.666753\n276.6985,3.674261\n277.1341,3.681645\n277.1378,3.685178\n277.3517,3.685116\n277.3596,3.692623\n277.6002,3.692554\n277.6077,3.699620\n277.8215,3.699558\n277.8257,3.703532\n278.2876,3.710467\n278.2918,3.714441\n278.5056,3.714380\n278.5094,3.717912\n278.7270,3.721384\n278.7312,3.725358\n279.1930,3.732293\n279.1973,3.736267\n279.4111,3.736205\n279.4148,3.739738\n279.6591,3.743202\n279.6633,3.747176\n279.8772,3.747114\n279.8809,3.750647\n280.0948,3.750586\n280.0985,3.754118\n280.3433,3.758023\n280.5571,3.757962\n280.5646,3.765028\n281.0269,3.772404\n281.4546,3.772280\n281.4626,3.779787\n281.7031,3.779718\n281.7069,3.783251\n281.9244,3.786722\n282.3788,3.786591\n282.3830,3.790565\n283.0630,3.801412\n283.2768,3.801350\n283.4944,3.804822\n283.7349,3.804752\n284.1706,3.812136\n284.4111,3.812066\n284.4149,3.815599\n284.6287,3.815537\n284.8463,3.819009\n285.0601,3.818947\n285.3049,3.822852\n285.5187,3.822790\n285.7363,3.826261\n285.9768,3.826191\n286.4125,3.833575\n286.6530,3.833506\n286.8706,3.836977\n287.3250,3.836845\n287.5430,3.840758\n287.7569,3.840696\n288.2187,3.847631\n288.8870,3.847438\n289.1050,3.851350\n289.3456,3.851281\n289.5632,3.854752\n290.4452,3.854497\n290.6895,3.857960\n290.9034,3.857898\n291.1134,3.854304\n291.5678,3.854172\n291.7779,3.850577\n292.0143,3.846533\n292.0185,3.850508\n292.6520,3.842815\n292.6558,3.846348\n292.8926,3.842745\n293.1027,3.839150\n293.3165,3.839089\n293.5529,3.835045\n293.7667,3.834983\n294.2094,3.823811\n294.2136,3.827785\n294.4195,3.820216\n294.4232,3.823749\n294.6291,3.816180\n294.6333,3.820154\n294.8659,3.812577\n294.8697,3.816110\n295.0718,3.805008\n295.0760,3.808982\n295.2857,3.804946\n295.5145,3.793836\n295.5225,3.801344\n295.7246,3.790241\n295.7284,3.793774\n296.3774,3.775475\n296.3811,3.779008\n296.5833,3.767905\n296.5912,3.775413\n297.0260,3.756733\n297.0297,3.760266\n297.4687,3.745562\n297.4724,3.749095\n297.6788,3.741967\n297.6825,3.745500\n298.1215,3.730795\n298.1252,3.734328\n298.7738,3.715587\n298.7780,3.719561\n298.9839,3.711992\n299.1940,3.708397\n299.1977,3.711930\n299.4303,3.704353\n299.4345,3.708328\n299.6367,3.697225\n299.6404,3.700758\n299.8463,3.693189\n300.0564,3.689594\n300.0601,3.693127\n300.2890,3.682017\n300.2932,3.685992\n300.7050,3.670853\n300.7092,3.674828\n300.9376,3.663276\n300.9418,3.667251\n301.1477,3.659681\n301.1514,3.663214\n301.5904,3.648509\n301.5941,3.652042\n301.7962,3.640940\n301.8005,3.644915\n302.2389,3.629768\n302.2432,3.633743\n302.8880,3.611469\n302.8955,3.618535\n303.0976,3.607432\n303.1018,3.611407\n303.2998,3.596330\n303.3077,3.603838\n303.5328,3.589195\n303.5403,3.596260\n303.7425,3.585158\n303.9488,3.578030\n303.9563,3.585096\n304.1814,3.570453\n304.1852,3.573986\n304.5894,3.551782\n304.6011,3.562822\n304.8146,3.537139\n304.8262,3.548179\n305.0087,3.518529\n305.0246,3.533544\n305.2109,3.507427\n305.2188,3.514934\n305.4435,3.499850\n305.4477,3.503824\n305.6419,3.485215\n305.6536,3.496255\n305.8478,3.477645\n305.8520,3.481620\n306.0766,3.466535\n306.0846,3.474043\n306.2830,3.459407\n306.2867,3.462940\n306.4851,3.448305\n306.4926,3.455371\n306.7098,3.433221\n306.7215,3.444261\n306.9082,3.418585\n306.9199,3.429626\n307.1140,3.411016\n307.1220,3.418524\n307.3162,3.399914\n307.3241,3.407421\n307.5493,3.392778\n307.5530,3.396311\n307.7434,3.374169\n307.7589,3.388742\n307.9418,3.359533\n307.9535,3.370574\n308.1665,3.344449\n308.1782,3.355489\n308.3649,3.329814\n308.3803,3.344387\n308.5591,3.311204\n308.5745,3.325777\n308.7842,3.296561\n308.7959,3.307601\n308.9863,3.285459\n308.9938,3.292524\n309.1805,3.266849\n309.1960,3.281422\n309.4056,3.252206\n309.4173,3.263246\n309.6036,3.237129\n309.6153,3.248169\n309.8020,3.222494\n309.8137,3.233534\n310.0271,3.207851\n310.0388,3.218891\n310.2250,3.192774\n310.2367,3.203815\n310.4192,3.174164\n310.4351,3.189179\n310.6481,3.163054\n310.6560,3.170562\n310.8427,3.144886\n310.8582,3.159460\n311.0407,3.129809\n311.0523,3.140850\n311.2658,3.115166\n311.2775,3.126207\n311.4717,3.107597\n311.4759,3.111572\n311.6701,3.092962\n311.6817,3.104002\n311.9027,3.085385\n311.9069,3.089359\n312.0973,3.067217\n312.1128,3.081790\n312.2952,3.052140\n312.3069,3.063180\n312.5241,3.041030\n312.5321,3.048537\n312.7146,3.018887\n312.7342,3.037435\n312.9167,3.007785\n312.9246,3.015292\n313.1456,2.996675\n313.1535,3.004182\n313.3397,2.978065\n313.3556,2.993080\n313.5381,2.963430\n313.5498,2.974470\n313.7670,2.952320\n313.7750,2.959827\n313.9691,2.941218\n313.9771,2.948725\n314.1675,2.926582\n314.1792,2.937623\n314.3617,2.907973\n314.3772,2.922546\n314.5826,2.889355\n314.5985,2.904370\n314.7848,2.878253\n314.7927,2.885760\n314.9752,2.856110\n314.9949,2.874658\n315.2003,2.841467\n315.2120,2.852508\n315.3983,2.826390\n315.4100,2.837431\n315.5887,2.804248\n315.6084,2.822795\n315.8176,2.793138\n315.8255,2.800645\n316.0080,2.770995\n316.0277,2.789543\n316.2064,2.756360\n316.2181,2.767400\n316.4236,2.734209\n316.4432,2.752757\n316.6140,2.712066\n316.6337,2.730614\n316.8082,2.693457\n316.8236,2.708030\n317.0137,2.660266\n317.0488,2.693387\n317.2079,2.641656\n317.2238,2.656671\n317.3908,2.612447\n317.4180,2.638061\n317.6038,2.586322\n317.6272,2.608403\n317.7825,2.553139\n317.8139,2.582728\n317.9767,2.534529\n317.9926,2.549544\n318.1822,2.501339\n318.2135,2.530927\n318.3455,2.453582\n318.3923,2.497744\n318.5088,2.405825\n318.5556,2.449987\n318.7063,2.365127\n318.7452,2.401781\n318.8888,2.335477\n318.9160,2.361091\n319.0676,2.302294\n319.0989,2.331882\n319.2731,2.269103\n319.3044,2.298691\n319.4672,2.250493\n319.4869,2.269041\n319.6539,2.224817\n319.6773,2.246898\n319.8669,2.198693\n319.8903,2.220773\n320.0616,2.180524\n320.0770,2.195098\n##END=\n'