b'##TITLE=2-Methoxythiophene\n##JCAMP-DX=4.24\n##DATA TYPE=UV/VIS SPECTRUM\n##ORIGIN=INSTITUTE OF ENERGY PROBLEMS OF CHEMICAL PHYSICS, RAS\n##OWNER=INEP CP RAS, NIST OSRD\nCollection (C) 2007 copyright by the U.S. Secretary of Commerce\non behalf of the United States of America. All rights reserved.\n##CAS REGISTRY NO=16839-97-7\n##MOLFORM=C5H6OS\n##BP=153-155\n##SOURCE REFERENCE=RAS UV No. 44\n##$NIST SQUIB=1950HUR/KRE5543-5546\n##$NIST SOURCE=TSGMTE\n##SPECTROMETER/DATA SYSTEM=Beckman spectrometer\n##XUNITS=Wavelength (nm)\n##YUNITS=Logarithm epsilon\n##XFACTOR=1.000000\n##YFACTOR=1.000000\n##FIRSTX=220.0000\n##LASTX=289.0000\n##FIRSTY=3.5\n##MAXX=289\n##MINX=220\n##MAXY=3.66\n##MINY=1.11\n##NPOINTS=70\n##$REF AUTHOR=Hurd, C.D.; Kreuz, K.L.\n##$REF TITLE=Thienol\n##$REF JOURNAL=J. Am. Chem. Soc.\n##$REF VOLUME=72\n##$REF PAGE=5543-5546\n##$REF DATE=1950\n##XYPOINTS=(XY..XY)\n220.0000,3.500003\n221.0000,3.510000\n222.0000,3.530000\n223.0000,3.530000\n224.0000,3.540000\n225.0000,3.550000\n226.0000,3.550000\n227.0000,3.560000\n228.0000,3.560000\n229.0000,3.570000\n230.0000,3.570006\n231.0000,3.570000\n232.0000,3.570000\n233.0000,3.570000\n234.0000,3.580000\n235.0000,3.580000\n236.0000,3.580000\n237.0000,3.590000\n238.0000,3.610000\n239.0000,3.620000\n240.0000,3.630000\n241.0000,3.640000\n242.0000,3.650000\n243.0000,3.650000\n244.0000,3.660000\n245.0000,3.660000\n246.0000,3.660000\n247.0000,3.650000\n248.0000,3.650000\n249.0000,3.630000\n250.0000,3.620001\n251.0000,3.600000\n252.0000,3.590000\n253.0000,3.560000\n254.0000,3.540000\n255.0000,3.500000\n256.0000,3.470000\n257.0000,3.430000\n258.0000,3.370000\n259.0000,3.330000\n260.0000,3.270003\n261.0000,3.200000\n262.0000,3.120000\n263.0000,3.050000\n264.0000,2.940000\n265.0000,2.850000\n266.0000,2.760000\n267.0000,2.680000\n268.0000,2.580000\n269.0000,2.490000\n270.0000,2.400002\n271.0000,2.290000\n272.0000,2.190000\n273.0000,2.080000\n274.0000,2.010000\n275.0000,1.910000\n276.0000,1.840000\n277.0000,1.770000\n278.0000,1.710000\n279.0000,1.650000\n280.0000,1.590005\n281.0000,1.530000\n282.0000,1.470000\n283.0000,1.410001\n284.0000,1.360000\n285.0000,1.299999\n286.0000,1.250000\n287.0000,1.199999\n288.0000,1.139999\n289.0000,1.110000\n##END=\n'