b'##TITLE=5-Fluoro-2-methoxypyrimidine\n##JCAMP-DX=4.24\n##DATA TYPE=UV/VIS SPECTRUM\n##ORIGIN=INSTITUTE OF ENERGY PROBLEMS OF CHEMICAL PHYSICS, RAS\n##OWNER=INEP CP RAS, NIST OSRD\nCollection (C) 2007 copyright by the U.S. Secretary of Commerce\non behalf of the United States of America. All rights reserved.\n##CAS REGISTRY NO=17148-49-1\n##MOLFORM=C5H5FN2O\n##MP=23.5-25\n##SOURCE REFERENCE=RAS UV No. 18935\n##$NIST SQUIB=1975KOP104\n##$NIST SOURCE=TYUGLMTE\n##SPECTROMETER/DATA SYSTEM=SF-16\n##XUNITS=Wavelength (nm)\n##YUNITS=Logarithm epsilon\n##XFACTOR=1.0\n##YFACTOR=1.0\n##FIRSTX=210\n##LASTX=315.75\n##FIRSTY=3.839\n##MAXX=315.75\n##MINX=210\n##MAXY=3.839\n##MINY=2.022\n##NPOINTS=74\n##$REF AUTHOR=(editor), Koptyug V.A.\n##$REF JOURNAL=Atlas of Spectra of Aromatic and Heterocyclic Compounds\n##$REF VOLUME=8\n##$REF PAGE=104\n##$REF DATE=1975\n##XYPOINTS=(XY..XY)\n210.00,3.839\n210.48,3.839\n211.43,3.810\n212.86,3.730\n214.29,3.616\n215.72,3.507\n217.15,3.402\n218.58,3.222\n220.01,3.047\n222.86,2.772\n224.29,2.677\n225.72,2.596\n227.15,2.525\n228.58,2.463\n230.01,2.407\n231.44,2.359\n232.87,2.326\n234.30,2.297\n235.72,2.283\n237.15,2.283\n240.01,2.302\n241.44,2.326\n242.87,2.383\n244.30,2.459\n245.73,2.525\n247.16,2.596\n248.58,2.686\n250.01,2.767\n251.44,2.843\n252.87,2.900\n254.30,2.952\n255.73,3.009\n257.16,3.070\n258.59,3.137\n260.02,3.203\n261.45,3.260\n262.87,3.331\n264.30,3.379\n265.73,3.426\n267.16,3.469\n268.59,3.521\n270.02,3.564\n271.45,3.602\n272.88,3.635\n274.31,3.659\n275.74,3.678\n277.16,3.692\n278.59,3.706\n280.02,3.706\n281.45,3.701\n282.88,3.682\n284.31,3.654\n285.74,3.611\n287.17,3.559\n288.60,3.512\n290.03,3.459\n291.45,3.369\n292.88,3.298\n294.31,3.194\n295.74,3.080\n297.17,2.995\n298.60,2.819\n300.03,2.748\n301.46,2.663\n302.89,2.577\n304.31,2.497\n305.74,2.416\n307.17,2.345\n308.60,2.307\n310.03,2.241\n311.46,2.169\n312.89,2.108\n314.32,2.046\n315.75,2.022\n##END=\n'