b'##TITLE=Pyrimidine, 2-chloro-\n##JCAMP-DX=4.24\n##DATA TYPE=UV/VIS SPECTRUM\n##ORIGIN=INSTITUTE OF ENERGY PROBLEMS OF CHEMICAL PHYSICS, RAS\n##OWNER=INEP CP RAS, NIST OSRD\nCollection (C) 2007 copyright by the U.S. Secretary of Commerce\non behalf of the United States of America. All rights reserved.\n##CAS REGISTRY NO=1722-12-9\n##MOLFORM=C4H3ClN2\n##MP=64.5-65.5\n##SOURCE REFERENCE=RAS UV No. 18932\n##$NIST SQUIB=1975KOP20\n##$NIST SOURCE=TYUGLMTE\n##SPECTROMETER/DATA SYSTEM=SF-16\n##XUNITS=Wavelength (nm)\n##YUNITS=Logarithm epsilon\n##XFACTOR=1.0\n##YFACTOR=1.0\n##FIRSTX=205.74\n##LASTX=294.7\n##FIRSTY=3.897\n##MAXX=294.7\n##MINX=205.74\n##MAXY=3.897\n##MINY=2.515\n##NPOINTS=64\n##$REF AUTHOR=(editor), Koptyug V.A.\n##$REF JOURNAL=Atlas of Spectra of Aromatic and Heterocyclic Compounds\n##$REF VOLUME=8\n##$REF PAGE=20\n##$REF DATE=1975\n##XYPOINTS=(XY..XY)\n205.74,3.897\n206.22,3.888\n206.70,3.883\n207.17,3.874\n208.61,3.841\n210.04,3.785\n211.48,3.743\n212.91,3.650\n214.35,3.500\n215.78,3.398\n217.22,3.304\n218.65,3.216\n220.09,3.038\n221.52,2.866\n222.96,2.796\n224.39,2.749\n225.83,2.749\n227.26,2.777\n230.13,2.866\n231.57,2.912\n233.00,2.954\n234.43,3.020\n235.87,3.080\n237.30,3.127\n238.74,3.169\n240.17,3.206\n241.61,3.244\n243.04,3.290\n244.48,3.332\n245.91,3.356\n247.35,3.379\n248.78,3.398\n250.22,3.416\n251.65,3.435\n253.09,3.426\n254.52,3.384\n255.96,3.346\n257.39,3.309\n258.83,3.276\n260.26,3.211\n261.70,3.090\n263.13,3.024\n264.57,2.856\n266.00,2.791\n267.43,2.725\n268.87,2.702\n270.30,2.693\n271.74,2.683\n273.17,2.679\n274.61,2.674\n276.04,2.669\n277.48,2.665\n278.91,2.655\n280.35,2.651\n281.78,2.641\n283.22,2.632\n284.65,2.623\n286.09,2.609\n287.52,2.595\n288.96,2.581\n290.39,2.567\n291.83,2.553\n293.26,2.539\n294.70,2.515\n##END=\n'