b"##TITLE=Hydrazine, trimethyl-\n##JCAMP-DX=4.24\n##DATA TYPE=UV/VIS SPECTRUM\n##ORIGIN=INSTITUTE OF ENERGY PROBLEMS OF CHEMICAL PHYSICS, RAS\n##OWNER=INEP CP RAS, NIST OSRD\nCollection (C) 2007 copyright by the U.S. Secretary of Commerce\non behalf of the United States of America. All rights reserved.\n##CAS REGISTRY NO=1741-01-1\n##MOLFORM=C3H10N2\n##SOURCE REFERENCE=RAS UV No. 20197\n##$NIST SQUIB=1969BOL/222\n##$NIST SOURCE=TYUGLMTE\n##SPECTROMETER/DATA SYSTEM=SF-4\n##XUNITS=Wavelength (nm)\n##YUNITS=Logarithm epsilon\n##XFACTOR=1.0\n##YFACTOR=1.0\n##FIRSTX=221.71\n##LASTX=283.42\n##FIRSTY=3.763\n##MAXX=283.42\n##MINX=221.71\n##MAXY=3.763\n##MINY=1.523\n##NPOINTS=180\n##$REF AUTHOR=Bol'shakov, G.F.; et al.\n##$REF JOURNAL=Ultraviolet spectra of heteroorganic compounds\n##$REF PAGE=222\n##$REF DATE=1969\n##XYPOINTS=(XY..XY)\n221.71,3.763\n221.75,3.709\n221.91,3.635\n222.26,3.593\n222.61,3.566\n222.95,3.554\n223.30,3.535\n223.65,3.525\n224.00,3.510\n224.34,3.496\n224.69,3.485\n225.04,3.473\n225.39,3.465\n225.73,3.454\n226.08,3.444\n226.43,3.436\n226.78,3.432\n227.12,3.423\n227.47,3.413\n227.82,3.407\n228.17,3.402\n228.51,3.394\n228.86,3.392\n229.21,3.384\n229.56,3.376\n229.90,3.371\n230.25,3.365\n230.60,3.361\n230.95,3.359\n231.29,3.353\n231.64,3.351\n231.99,3.351\n232.34,3.344\n232.68,3.342\n233.03,3.340\n233.38,3.338\n233.73,3.332\n234.07,3.332\n234.42,3.330\n234.77,3.328\n235.12,3.326\n235.46,3.322\n235.81,3.322\n236.16,3.322\n236.51,3.320\n236.85,3.320\n237.20,3.317\n237.55,3.317\n237.90,3.315\n238.24,3.315\n238.59,3.315\n238.94,3.315\n239.29,3.315\n239.63,3.315\n239.98,3.315\n240.33,3.315\n240.68,3.317\n241.02,3.320\n241.37,3.322\n241.72,3.322\n242.07,3.326\n242.41,3.328\n242.76,3.330\n243.11,3.336\n243.46,3.338\n243.80,3.340\n244.15,3.344\n244.50,3.344\n244.85,3.342\n245.19,3.340\n245.54,3.338\n245.89,3.336\n246.24,3.330\n246.58,3.326\n246.93,3.322\n247.28,3.320\n247.63,3.317\n247.97,3.311\n248.32,3.309\n248.67,3.307\n249.02,3.305\n249.36,3.303\n249.71,3.299\n250.06,3.297\n250.41,3.295\n250.75,3.293\n251.10,3.290\n251.45,3.288\n251.80,3.288\n252.14,3.286\n252.49,3.286\n252.84,3.284\n253.19,3.284\n253.53,3.282\n253.88,3.282\n254.23,3.282\n254.58,3.280\n254.92,3.280\n255.27,3.278\n255.62,3.276\n255.97,3.274\n256.31,3.274\n256.66,3.270\n257.01,3.266\n257.36,3.261\n257.70,3.257\n258.05,3.253\n258.40,3.249\n258.75,3.243\n259.09,3.237\n259.44,3.228\n259.79,3.224\n260.14,3.216\n260.48,3.210\n260.83,3.205\n261.18,3.197\n261.53,3.187\n261.88,3.183\n262.22,3.174\n262.57,3.166\n262.92,3.156\n263.27,3.145\n263.61,3.135\n263.96,3.127\n264.31,3.116\n264.66,3.104\n265.00,3.093\n265.35,3.083\n265.70,3.071\n266.05,3.060\n266.35,3.049\n266.74,3.031\n267.09,3.019\n267.41,3.007\n267.78,2.992\n268.13,2.975\n268.44,2.957\n268.83,2.936\n269.17,2.923\n269.52,2.902\n269.87,2.884\n270.22,2.865\n270.56,2.849\n270.91,2.828\n271.27,2.807\n271.73,2.780\n272.26,2.748\n272.65,2.720\n273.00,2.687\n273.34,2.660\n273.69,2.618\n274.04,2.587\n274.39,2.521\n274.73,2.461\n275.08,2.425\n275.43,2.386\n275.78,2.340\n276.12,2.280\n276.47,2.239\n276.67,2.179\n276.84,2.101\n277.04,1.988\n277.34,1.882\n277.74,1.824\n278.04,1.789\n278.38,1.754\n278.81,1.715\n279.25,1.689\n279.60,1.672\n279.95,1.649\n280.29,1.631\n280.64,1.618\n280.99,1.602\n281.34,1.587\n281.68,1.577\n282.03,1.564\n282.38,1.554\n282.73,1.541\n283.07,1.531\n283.42,1.523\n##END=\n"