b'##TITLE=3-methyl-2-(methylimino)-4-thiazolidinone\n##JCAMP-DX=4.24\n##DATA TYPE=UV/VIS SPECTRUM\n##ORIGIN=INSTITUTE OF ENERGY PROBLEMS OF CHEMICAL PHYSICS, RAS\n##OWNER=INEP CP RAS, NIST OSRD\nCollection (C) 2007 copyright by the U.S. Secretary of Commerce\non behalf of the United States of America. All rights reserved.\n##CAS REGISTRY NO=1762-57-8\n##MOLFORM=C5H8N2OS\n##MP=144-146\n##SOURCE REFERENCE=RAS UV No. 22241\n##$NIST SQUIB=1978RAM/1327\n##$NIST SOURCE=TYUGLMTE\n##SPECTROMETER/DATA SYSTEM=SF-16\n##XUNITS=Wavelength (nm)\n##YUNITS=Logarithm epsilon\n##XFACTOR=1.0\n##YFACTOR=1.0\n##FIRSTX=200.847\n##LASTX=242.847\n##FIRSTY=3.757\n##MAXX=242.847\n##MINX=200.847\n##MAXY=4.145\n##MINY=3.539\n##NPOINTS=43\n##$REF AUTHOR=Ramsh, S.M.; et al.\n##$REF JOURNAL=Zhur. Organ. Khim.\n##$REF VOLUME=14\n##$REF PAGE=1327\n##$REF DATE=1978\n##XYPOINTS=(XY..XY)\n200.847,3.757\n201.847,3.785\n202.847,3.816\n203.847,3.849\n204.847,3.883\n205.847,3.917\n206.847,3.951\n207.847,3.983\n208.847,4.013\n209.847,4.041\n210.847,4.066\n211.847,4.088\n212.847,4.106\n213.847,4.121\n214.847,4.133\n215.847,4.141\n216.847,4.145\n217.847,4.145\n218.847,4.142\n219.847,4.136\n220.847,4.127\n221.847,4.114\n222.847,4.099\n223.847,4.081\n224.847,4.062\n225.847,4.040\n226.847,4.016\n227.847,3.991\n228.847,3.965\n229.847,3.938\n230.847,3.910\n231.847,3.882\n232.847,3.853\n233.847,3.824\n234.847,3.794\n235.847,3.764\n236.847,3.734\n237.847,3.704\n238.847,3.673\n239.847,3.642\n240.847,3.609\n241.847,3.575\n242.847,3.539\n##END=\n'