b'##TITLE=Methyl vinyl sulfide\n##JCAMP-DX=4.24\n##DATA TYPE=UV/VIS SPECTRUM\n##ORIGIN=INSTITUTE OF ENERGY PROBLEMS OF CHEMICAL PHYSICS, RAS\n##OWNER=INEP CP RAS, NIST OSRD\nCollection (C) 2007 copyright by the U.S. Secretary of Commerce\non behalf of the United States of America. All rights reserved.\n##CAS REGISTRY NO=1822-74-8\n##MOLFORM=C3H6S\n##BP=69.5\n##SOURCE REFERENCE=RAS UV No. 10383\n##$NIST SQUIB=1950PRI/ZOM14\n##$NIST SOURCE=TYUGLMTE\n##SPECTROMETER/DATA SYSTEM=Beckman quartz spectrophotometer\n##XUNITS=Wavelength (nm)\n##YUNITS=Logarithm epsilon\n##XFACTOR=1.0\n##YFACTOR=1.0\n##FIRSTX=211.82\n##LASTX=318.47\n##FIRSTY=4.419\n##MAXX=318.47\n##MINX=211.82\n##MAXY=4.468\n##MINY=0.13\n##NPOINTS=181\n##$REF AUTHOR=Price, C.C.; Zomlefer, J.\n##$REF JOURNAL=J. Am Chem. Soc.\n##$REF VOLUME=72\n##$REF PAGE=14\n##$REF DATE=1950\n##XYPOINTS=(XY..XY)\n211.82,4.419\n212.13,4.424\n212.44,4.424\n212.75,4.430\n213.06,4.435\n213.37,4.435\n213.68,4.441\n213.99,4.441\n214.30,4.446\n214.61,4.451\n214.93,4.451\n215.24,4.457\n215.55,4.457\n215.86,4.462\n216.17,4.468\n216.48,4.468\n216.79,4.457\n217.41,4.457\n218.03,4.457\n218.66,4.457\n219.28,4.457\n219.90,4.451\n220.52,4.451\n221.14,4.441\n221.77,4.435\n222.39,4.413\n223.01,4.386\n223.63,4.354\n224.25,4.322\n225.19,4.089\n225.50,4.078\n225.81,4.067\n226.12,4.062\n226.43,4.051\n226.74,4.040\n227.05,4.035\n227.36,4.024\n227.67,4.040\n228.30,4.040\n228.92,4.035\n229.54,4.035\n230.16,4.019\n230.78,4.019\n231.41,4.002\n232.03,3.986\n232.65,3.970\n233.27,3.948\n233.89,3.932\n234.51,3.916\n235.14,3.900\n235.76,3.894\n236.38,3.878\n237.00,3.867\n237.62,3.840\n238.25,3.797\n238.87,3.781\n239.49,3.764\n240.11,3.737\n240.73,3.710\n241.36,3.689\n241.98,3.672\n242.60,3.651\n243.22,3.602\n243.84,3.570\n244.47,3.548\n245.09,3.521\n245.71,3.499\n246.33,3.462\n246.95,3.440\n247.57,3.413\n248.20,3.386\n248.82,3.359\n249.44,3.326\n250.06,3.299\n250.68,3.267\n251.31,3.229\n251.93,3.197\n252.55,3.159\n253.17,3.121\n253.79,3.094\n254.42,3.023\n255.04,2.996\n255.66,2.953\n256.28,2.904\n256.90,2.867\n257.52,2.823\n258.15,2.785\n258.77,2.742\n259.39,2.694\n260.01,2.645\n260.63,2.602\n261.26,2.531\n261.88,2.477\n262.50,2.439\n263.12,2.391\n263.74,2.315\n264.37,2.245\n264.99,2.212\n265.61,2.115\n266.23,2.023\n266.85,1.958\n267.48,1.898\n268.10,1.844\n268.72,1.785\n269.34,1.736\n269.96,1.682\n270.58,1.639\n271.21,1.601\n271.83,1.552\n272.45,1.487\n273.07,1.450\n273.69,1.406\n274.32,1.368\n274.94,1.341\n275.56,1.298\n276.18,1.249\n276.80,1.222\n277.43,1.190\n278.05,1.163\n278.67,1.120\n279.29,1.093\n279.91,1.066\n280.53,1.038\n281.16,1.011\n281.78,0.984\n282.40,0.941\n283.02,0.919\n283.64,0.892\n284.27,0.865\n284.89,0.844\n285.51,0.828\n286.13,0.811\n286.75,0.806\n287.38,0.757\n288.00,0.736\n288.62,0.725\n289.24,0.692\n289.86,0.681\n290.49,0.665\n291.11,0.649\n291.73,0.633\n292.35,0.617\n292.97,0.595\n293.59,0.579\n294.22,0.562\n294.84,0.546\n295.46,0.530\n296.08,0.508\n297.33,0.487\n297.95,0.476\n298.57,0.465\n299.19,0.460\n299.81,0.449\n300.44,0.438\n301.06,0.416\n301.68,0.406\n302.30,0.395\n302.92,0.384\n303.54,0.373\n304.17,0.362\n304.79,0.352\n305.41,0.341\n306.03,0.325\n306.65,0.325\n307.28,0.308\n307.90,0.297\n308.52,0.287\n309.14,0.276\n309.76,0.265\n310.39,0.254\n311.01,0.243\n311.63,0.227\n312.25,0.216\n312.87,0.206\n313.50,0.200\n314.12,0.189\n314.74,0.184\n315.36,0.178\n315.98,0.162\n317.23,0.151\n318.47,0.130\n##END=\n'