b'##TITLE=Boranamine, N,N-dimethyl-\n##JCAMP-DX=4.24\n##DATA TYPE=UV/VIS SPECTRUM\n##ORIGIN=INSTITUTE OF ENERGY PROBLEMS OF CHEMICAL PHYSICS, RAS\n##OWNER=INEP CP RAS, NIST OSRD\nCollection (C) 2007 copyright by the U.S. Secretary of Commerce\non behalf of the United States of America. All rights reserved.\n##CAS REGISTRY NO=1838-13-7\n##MOLFORM=C2H8BN\n##SOURCE REFERENCE=RAS UV No. 14085\n##$NIST SQUIB=1974FUS514\n##$NIST SOURCE=TYUGLMTE\n##SPECTROMETER/DATA SYSTEM=McPherson 225\n##XUNITS=Wavelength (nm)\n##YUNITS=Logarithm epsilon\n##XFACTOR=1.0\n##YFACTOR=1.0\n##FIRSTX=139.89\n##LASTX=188.79\n##FIRSTY=4.231\n##MAXX=188.79\n##MINX=139.89\n##MAXY=4.231\n##MINY=2.44\n##NPOINTS=77\n##$REF AUTHOR=Fuss, W.\n##$REF JOURNAL=Z. Naturforsch.\n##$REF VOLUME=29b\n##$REF PAGE=514\n##$REF DATE=1974\n##XYPOINTS=(XY..XY)\n139.89,4.231\n140.63,4.217\n141.47,4.208\n142.22,4.190\n142.98,4.171\n143.66,4.144\n144.34,4.116\n145.12,4.093\n145.82,4.070\n146.52,4.047\n147.23,4.024\n147.84,3.992\n148.77,3.978\n149.71,3.978\n150.66,3.987\n151.62,3.996\n152.49,4.015\n153.26,4.038\n154.14,4.052\n155.04,4.084\n156.06,4.107\n157.09,4.112\n158.26,4.107\n159.20,4.084\n159.92,4.052\n160.40,4.015\n161.01,3.978\n161.49,3.941\n161.86,3.904\n162.35,3.868\n162.73,3.831\n163.35,3.789\n163.85,3.752\n164.36,3.716\n164.74,3.679\n165.12,3.642\n165.50,3.605\n166.02,3.568\n166.54,3.531\n167.19,3.499\n168.24,3.467\n169.45,3.472\n170.67,3.485\n171.63,3.508\n172.60,3.545\n173.58,3.568\n174.58,3.601\n175.58,3.624\n176.75,3.637\n178.07,3.633\n179.57,3.614\n180.49,3.587\n181.25,3.554\n181.87,3.518\n182.65,3.476\n182.96,3.435\n183.43,3.389\n183.91,3.338\n184.38,3.292\n184.86,3.241\n185.02,3.200\n185.51,3.145\n185.83,3.103\n185.99,3.062\n186.15,3.020\n186.32,2.970\n186.64,2.924\n186.81,2.878\n186.97,2.836\n187.13,2.795\n187.30,2.749\n187.46,2.707\n187.79,2.661\n187.96,2.620\n188.29,2.533\n188.62,2.486\n188.79,2.440\n##END=\n'