b'##TITLE=5-Nitroaminotetrazole\n##JCAMP-DX=4.24\n##DATA TYPE=UV/VIS SPECTRUM\n##ORIGIN=INSTITUTE OF ENERGY PROBLEMS OF CHEMICAL PHYSICS, RAS\n##OWNER=INEP CP RAS, NIST OSRD\nCollection (C) 2007 copyright by the U.S. Secretary of Commerce\non behalf of the United States of America. All rights reserved.\n##CAS REGISTRY NO=18588-16-4\n##MOLFORM=CH2N6O2\n##BP=expl. 140\n##SOURCE REFERENCE=RAS UV No. 9290\n##$NIST SQUIB=1951LIE/PAT2329\n##$NIST SOURCE=TYUGLMTE\n##SPECTROMETER/DATA SYSTEM=Beckman DU\n##XUNITS=Wavelength (nm)\n##YUNITS=Logarithm epsilon\n##XFACTOR=1.0\n##YFACTOR=1.0\n##FIRSTX=215.27\n##LASTX=322.37\n##FIRSTY=3.787\n##MAXX=322.37\n##MINX=215.27\n##MAXY=4.143\n##MINY=3.079\n##NPOINTS=124\n##$REF AUTHOR=Lieber, E.; Patinkin, S.H.\n##$REF JOURNAL=J. Am. Chem. Soc\n##$REF VOLUME=73\n##$REF PAGE=2329\n##$REF DATE=1951\n##XYPOINTS=(XY..XY)\n215.27,3.787\n215.43,3.781\n215.65,3.772\n216.10,3.761\n216.92,3.746\n217.74,3.728\n218.57,3.714\n219.39,3.693\n220.22,3.677\n221.04,3.659\n221.86,3.645\n222.69,3.631\n223.51,3.615\n224.33,3.601\n225.24,3.581\n225.98,3.566\n226.81,3.552\n227.63,3.535\n228.47,3.523\n230.10,3.502\n230.93,3.490\n231.75,3.483\n232.57,3.476\n233.40,3.466\n235.04,3.461\n235.87,3.463\n236.69,3.471\n237.52,3.476\n238.34,3.486\n239.24,3.496\n239.99,3.507\n240.81,3.520\n241.63,3.538\n242.46,3.554\n243.28,3.570\n244.23,3.593\n244.93,3.615\n245.75,3.638\n246.58,3.658\n247.40,3.683\n248.23,3.708\n249.05,3.730\n249.87,3.763\n250.70,3.787\n251.52,3.813\n252.34,3.838\n253.17,3.864\n253.99,3.878\n254.82,3.899\n255.64,3.919\n256.46,3.939\n257.29,3.955\n258.11,3.981\n258.94,3.992\n259.76,4.008\n260.58,4.021\n261.41,4.036\n262.23,4.051\n263.05,4.066\n263.88,4.077\n264.70,4.086\n265.53,4.098\n266.35,4.108\n268.00,4.124\n268.82,4.127\n269.65,4.132\n270.47,4.135\n272.12,4.142\n272.94,4.142\n273.76,4.143\n275.41,4.142\n276.24,4.142\n277.88,4.134\n278.71,4.129\n279.53,4.124\n280.35,4.118\n281.18,4.113\n282.00,4.102\n282.83,4.095\n283.65,4.087\n284.47,4.075\n285.30,4.066\n286.12,4.058\n286.95,4.045\n287.77,4.033\n288.59,4.022\n289.42,4.008\n290.24,3.997\n291.89,3.969\n292.71,3.956\n293.54,3.942\n294.36,3.924\n295.18,3.911\n296.01,3.893\n296.83,3.876\n297.66,3.861\n298.48,3.840\n299.30,3.821\n300.13,3.800\n300.95,3.779\n301.77,3.759\n302.60,3.736\n303.42,3.708\n304.25,3.684\n305.89,3.631\n306.72,3.606\n307.54,3.580\n308.37,3.548\n309.19,3.520\n310.01,3.493\n310.84,3.466\n311.66,3.440\n312.48,3.407\n313.31,3.380\n314.13,3.352\n315.78,3.300\n316.60,3.265\n317.43,3.237\n318.25,3.210\n319.07,3.187\n319.90,3.162\n320.72,3.131\n321.55,3.109\n322.37,3.079\n##END=\n'