b'##TITLE=1-Hydroxy-L-proline\n##JCAMP-DX=4.24\n##DATA TYPE=UV/VIS SPECTRUM\n##ORIGIN=INSTITUTE OF ENERGY PROBLEMS OF CHEMICAL PHYSICS, RAS\n##OWNER=INEP CP RAS, NIST OSRD\nCollection (C) 2007 copyright by the U.S. Secretary of Commerce\non behalf of the United States of America. All rights reserved.\n##CAS REGISTRY NO=18610-59-8\n##MOLFORM=C5H9NO3\n##SOURCE REFERENCE=RAS UV No. 11202\n##$NIST SQUIB=1952SAI/WAL285\n##$NIST SOURCE=TYUGLMTE\n##SPECTROMETER/DATA SYSTEM=Beckman DU\n##XUNITS=Wavelength (nm)\n##YUNITS=Logarithm epsilon\n##XFACTOR=1.0\n##YFACTOR=1.0\n##FIRSTX=200.54\n##LASTX=229.63\n##FIRSTY=2.114\n##MAXX=229.63\n##MINX=200.54\n##MAXY=2.114\n##MINY=0.624\n##NPOINTS=59\n##$REF AUTHOR=Saidel, L.J.; Waldman, S.\n##$REF JOURNAL=J. Biol. Chem.\n##$REF VOLUME=197\n##$REF PAGE=285\n##$REF DATE=1952\n##XYPOINTS=(XY..XY)\n200.54,2.114\n200.69,2.110\n200.90,2.104\n201.32,2.091\n201.70,2.075\n202.15,2.057\n202.69,2.033\n203.23,2.006\n203.77,1.977\n204.31,1.953\n204.84,1.929\n205.39,1.907\n205.69,1.893\n205.93,1.882\n206.20,1.869\n206.46,1.855\n207.00,1.826\n207.54,1.801\n208.08,1.775\n208.65,1.749\n209.16,1.723\n209.70,1.698\n210.24,1.669\n210.77,1.641\n211.31,1.611\n211.85,1.579\n212.39,1.551\n212.93,1.523\n213.47,1.497\n214.00,1.471\n214.53,1.447\n215.05,1.417\n215.62,1.386\n216.21,1.352\n216.69,1.325\n217.24,1.296\n217.78,1.266\n218.32,1.235\n218.81,1.202\n219.39,1.164\n219.94,1.132\n220.51,1.100\n220.98,1.074\n221.50,1.047\n222.09,1.016\n222.56,0.990\n223.16,0.958\n223.59,0.933\n224.18,0.904\n224.78,0.872\n225.28,0.847\n225.76,0.824\n226.40,0.789\n226.94,0.766\n227.47,0.741\n228.01,0.715\n228.54,0.686\n229.09,0.657\n229.63,0.624\n##END=\n'