b"##TITLE=2-Methyl-1-butanethiol\n##JCAMP-DX=4.24\n##DATA TYPE=UV/VIS SPECTRUM\n##ORIGIN=INSTITUTE OF ENERGY PROBLEMS OF CHEMICAL PHYSICS, RAS\n##OWNER=INEP CP RAS, NIST OSRD\nCollection (C) 2007 copyright by the U.S. Secretary of Commerce\non behalf of the United States of America. All rights reserved.\n##CAS REGISTRY NO=1878-18-8\n##MOLFORM=C5H12S\n##BP=116-117\n##SOURCE REFERENCE=RAS UV No. 20095\n##$NIST SQUIB=1969BOL/86\n##$NIST SOURCE=TYUGLMTE\n##SPECTROMETER/DATA SYSTEM=unknown\n##XUNITS=Wavelength (nm)\n##YUNITS=Logarithm epsilon\n##XFACTOR=1.0\n##YFACTOR=1.0\n##FIRSTX=205\n##LASTX=289.67\n##FIRSTY=2.428\n##MAXX=289.67\n##MINX=205\n##MAXY=2.428\n##MINY=0.155\n##NPOINTS=133\n##$REF AUTHOR=Bol'shakov, G.F.; et al.\n##$REF JOURNAL=Ultraviolet spectra of heteroorganic compounds\n##$REF PAGE=86\n##$REF DATE=1969\n##XYPOINTS=(XY..XY)\n205.00,2.428\n205.17,2.422\n205.33,2.416\n205.50,2.409\n205.67,2.403\n205.83,2.397\n206.00,2.391\n206.33,2.380\n207.00,2.355\n207.67,2.334\n208.33,2.315\n209.00,2.300\n209.67,2.285\n210.33,2.275\n211.00,2.262\n211.67,2.252\n212.33,2.237\n213.00,2.233\n213.67,2.224\n214.33,2.220\n215.00,2.214\n215.67,2.212\n216.33,2.209\n217.00,2.205\n217.67,2.203\n218.33,2.201\n219.00,2.199\n219.67,2.197\n220.33,2.195\n221.00,2.195\n221.67,2.195\n222.33,2.197\n223.00,2.199\n223.67,2.199\n224.33,2.197\n225.00,2.197\n225.67,2.195\n226.33,2.191\n227.00,2.188\n227.67,2.186\n228.33,2.184\n229.00,2.180\n229.67,2.178\n230.33,2.176\n231.00,2.172\n231.67,2.167\n232.33,2.165\n233.00,2.159\n233.67,2.151\n234.33,2.146\n235.00,2.140\n235.67,2.136\n236.33,2.129\n237.00,2.121\n237.67,2.117\n238.33,2.111\n239.00,2.102\n239.67,2.096\n240.33,2.087\n241.00,2.079\n241.67,2.068\n242.33,2.064\n243.00,2.058\n243.67,2.049\n244.33,2.037\n245.00,2.026\n245.67,2.016\n246.33,2.003\n247.00,1.991\n247.67,1.974\n248.33,1.961\n249.00,1.944\n249.67,1.929\n250.33,1.911\n251.00,1.881\n251.67,1.860\n252.33,1.837\n253.00,1.809\n253.67,1.780\n254.33,1.746\n255.00,1.704\n255.67,1.668\n256.33,1.635\n257.00,1.597\n257.67,1.534\n258.33,1.479\n259.00,1.420\n259.67,1.346\n260.33,1.285\n261.00,1.216\n261.67,1.157\n262.33,1.096\n263.00,1.028\n263.67,0.980\n264.33,0.934\n265.00,0.881\n265.67,0.839\n266.33,0.793\n267.00,0.753\n267.67,0.696\n268.33,0.654\n269.00,0.609\n269.67,0.572\n270.33,0.517\n271.00,0.483\n271.67,0.449\n272.33,0.412\n273.00,0.372\n273.67,0.346\n274.33,0.323\n275.00,0.300\n275.67,0.283\n276.33,0.264\n277.00,0.249\n277.67,0.239\n278.33,0.224\n279.00,0.214\n279.67,0.207\n280.33,0.199\n281.00,0.193\n281.67,0.188\n282.33,0.184\n283.00,0.180\n283.67,0.178\n284.33,0.174\n285.00,0.172\n285.67,0.169\n286.33,0.165\n287.00,0.161\n287.67,0.159\n288.33,0.157\n289.00,0.155\n289.67,0.155\n##END=\n"