b'##TITLE=trans-1,3-Pentadiene\n##JCAMP-DX=4.24\n##DATA TYPE=UV/VIS SPECTRUM\n##ORIGIN=INSTITUTE OF ENERGY PROBLEMS OF CHEMICAL PHYSICS, RAS\n##OWNER=INEP CP RAS, NIST OSRD\nCollection (C) 2007 copyright by the U.S. Secretary of Commerce\non behalf of the United States of America. All rights reserved.\n##CAS REGISTRY NO=2004-70-8\n##MOLFORM=C5H8\n##BP=42\n##SOURCE REFERENCE=RAS UV No. 20115\n##$NIST SQUIB=1969FIH/10\n##$NIST SOURCE=TYUGLMTE\n##SPECTROMETER/DATA SYSTEM=SF-4\n##XUNITS=Wavelength (nm)\n##YUNITS=Logarithm epsilon\n##XFACTOR=1.0\n##YFACTOR=1.0\n##FIRSTX=216.31\n##LASTX=238.79\n##FIRSTY=4.192\n##MAXX=238.79\n##MINX=216.31\n##MAXY=4.227\n##MINY=3.074\n##NPOINTS=58\n##$ADDITIONAL INFORMATION=93 % trans-form\n##$REF AUTHOR=Fihtengolts, V.S.; et al.\n##$REF JOURNAL=Atlas of UV Absorption Spectra of Substances Used in Synthetic Rubber Manufacture\n##$REF PAGE=10\n##$REF DATE=1969\n##XYPOINTS=(XY..XY)\n216.31,4.192\n216.40,4.194\n216.48,4.195\n216.57,4.196\n216.66,4.198\n216.74,4.199\n216.83,4.200\n217.18,4.204\n217.61,4.211\n218.04,4.215\n218.47,4.219\n218.91,4.223\n219.34,4.225\n219.77,4.227\n220.20,4.227\n220.63,4.222\n221.07,4.211\n221.50,4.202\n221.93,4.194\n222.36,4.190\n222.80,4.188\n223.23,4.186\n223.66,4.183\n224.09,4.181\n224.53,4.178\n224.96,4.173\n225.39,4.169\n225.82,4.163\n226.25,4.157\n226.69,4.152\n227.12,4.144\n227.55,4.134\n227.98,4.126\n228.42,4.117\n228.85,4.109\n229.28,4.101\n229.71,4.095\n230.14,4.088\n230.58,4.081\n231.01,4.071\n231.44,4.062\n231.87,4.051\n232.33,4.040\n232.75,4.025\n233.15,3.997\n233.60,3.950\n234.04,3.893\n234.47,3.810\n234.90,3.736\n235.33,3.652\n235.76,3.579\n236.20,3.507\n236.63,3.421\n237.06,3.348\n237.49,3.268\n237.93,3.194\n238.36,3.143\n238.79,3.074\n##END=\n'