b'##TITLE=Hydantoin, 5,5-dimethyl-2,4-dithio-\n##JCAMP-DX=4.24\n##DATA TYPE=UV/VIS SPECTRUM\n##ORIGIN=INSTITUTE OF ENERGY PROBLEMS OF CHEMICAL PHYSICS, RAS\n##OWNER=INEP CP RAS, NIST OSRD\nCollection (C) 2007 copyright by the U.S. Secretary of Commerce\non behalf of the United States of America. All rights reserved.\n##CAS REGISTRY NO=20513-25-1\n##MOLFORM=C5H8N2S2\n##MP=144.5\n##SOURCE REFERENCE=RAS UV No. 3062\n##$NIST SQUIB=1963EDW/CHI1650-1651\n##$NIST SOURCE=TSGMTE\n##SPECTROMETER/DATA SYSTEM=n.i.g.\n##XUNITS=Wavelength (nm)\n##YUNITS=Logarithm epsilon\n##XFACTOR=1.000000\n##YFACTOR=1.000000\n##FIRSTX=230.2875\n##LASTX=337.8649\n##FIRSTY=3.4931\n##MAXX=337.865\n##MINX=230.287\n##MAXY=4.44219\n##MINY=2.82347\n##NPOINTS=209\n##$REF AUTHOR=Edward, J.T.; Chin, O.J.\n##$REF TITLE=Thiohydantoins. V. Ionization of 2,4-dithiohydantoins as acids\n##$REF JOURNAL=Can. J. Chem.\n##$REF VOLUME=41\n##$REF PAGE=1650-1651\n##$REF DATE=1963\n##XYPOINTS=(XY..XY)\n230.2875,3.493102\n231.2553,3.453626\n232.1870,3.410064\n233.1099,3.362525\n234.0515,3.311298\n235.0389,3.256992\n236.0997,3.200738\n237.2610,3.144476\n238.5503,3.091289\n239.9950,3.045635\n240.2805,3.032655\n241.1639,3.042308\n242.0532,3.050626\n242.9539,3.058238\n242.9539,3.058238\n243.9274,3.116351\n245.0255,3.175904\n246.2122,3.234392\n247.4514,3.290330\n248.7068,3.342907\n249.9424,3.391732\n251.1218,3.436665\n252.2091,3.477702\n253.1680,3.514908\n253.9625,3.548377\n254.5562,3.578204\n254.8417,3.593682\n254.8417,3.593682\n254.9205,3.586353\n255.0051,3.578732\n255.1013,3.570635\n255.9717,3.634379\n256.9533,3.666920\n257.8111,3.693577\n258.5700,3.715996\n259.2546,3.735442\n259.8897,3.752938\n260.5001,3.769335\n261.1105,3.785364\n261.7456,3.801653\n262.4302,3.818739\n263.1891,3.837072\n264.0469,3.857010\n265.0285,3.878819\n266.1585,3.902671\n266.1585,3.902671\n266.6840,3.919358\n267.2730,3.937206\n268.5909,3.972067\n269.2944,3.987313\n270.0105,4.000124\n270.7267,4.009851\n270.7267,4.009851\n271.5470,4.030032\n272.3453,4.048949\n273.1191,4.066648\n273.8661,4.083165\n274.5838,4.098535\n275.2700,4.112786\n275.9221,4.125939\n276.5380,4.138015\n277.1151,4.149025\n277.6511,4.158980\n278.1437,4.167883\n278.5904,4.175733\n278.9889,4.182524\n279.3367,4.188246\n279.6316,4.192879\n279.8712,4.196402\n280.0530,4.198784\n280.1747,4.199986\n280.1747,4.199986\n280.2765,4.205073\n280.4005,4.209757\n280.5666,4.214878\n280.7943,4.221237\n281.1036,4.229581\n281.5142,4.240579\n282.0459,4.254784\n282.7183,4.272611\n282.7183,4.272611\n283.1392,4.280566\n283.5844,4.288413\n284.0424,4.296146\n284.5016,4.303762\n284.9505,4.311254\n285.3777,4.318619\n285.7715,4.325854\n286.1204,4.332954\n286.4130,4.339916\n286.6377,4.346738\n286.6377,4.346738\n287.4114,4.358540\n287.9912,4.368100\n288.4124,4.375551\n288.7103,4.380989\n288.9202,4.384482\n289.0775,4.386071\n289.0775,4.386071\n289.3067,4.393132\n289.6062,4.399660\n289.9776,4.405736\n290.4227,4.411437\n290.9431,4.416836\n291.5406,4.422002\n292.2170,4.426998\n292.9738,4.431887\n293.8129,4.436728\n294.7359,4.441577\n294.7359,4.441577\n295.2291,4.441782\n295.7222,4.441987\n296.2154,4.442193\n296.2154,4.442193\n296.6576,4.440235\n297.1056,4.438245\n297.5651,4.436199\n297.5651,4.436199\n298.0940,4.431453\n298.5987,4.426607\n299.0806,4.421661\n299.5414,4.416615\n299.9824,4.411469\n300.4052,4.406224\n300.8113,4.400879\n301.2022,4.395434\n301.5794,4.389889\n301.9444,4.384245\n302.2988,4.378502\n302.6440,4.372659\n302.9815,4.366717\n303.3129,4.360675\n303.6396,4.354535\n303.9631,4.348297\n304.2851,4.341960\n304.6069,4.335526\n304.9300,4.328994\n305.2561,4.322365\n305.5865,4.315640\n305.9229,4.308819\n305.9229,4.308819\n306.1254,4.301980\n306.3274,4.295029\n306.5289,4.287963\n306.7300,4.280779\n306.9307,4.273471\n307.1312,4.266037\n307.3315,4.258470\n307.5316,4.250767\n307.7318,4.242922\n307.9319,4.234931\n308.1322,4.226787\n308.3328,4.218485\n308.5335,4.210018\n308.7346,4.201380\n308.9362,4.192563\n309.1382,4.183560\n309.3408,4.174363\n309.5441,4.164964\n309.7481,4.155354\n309.9529,4.145522\n310.1586,4.135458\n310.3653,4.125151\n310.5730,4.114590\n310.7818,4.103761\n310.9919,4.092650\n311.2031,4.081243\n311.4158,4.069523\n311.6298,4.057472\n311.8454,4.045072\n312.0625,4.032302\n312.2813,4.019138\n312.5018,4.005557\n312.7241,3.991531\n312.9483,3.977030\n313.1744,3.962020\n313.4026,3.946465\n313.6329,3.930325\n313.8654,3.913552\n313.8654,3.913552\n314.0641,3.909930\n314.3845,3.898743\n315.0553,3.869788\n316.3052,3.808137\n316.3052,3.808137\n316.5223,3.803441\n316.7911,3.795271\n317.1511,3.782442\n317.6420,3.763498\n318.3031,3.736519\n319.1742,3.698759\n320.2946,3.645939\n321.7041,3.570635\n321.7041,3.570635\n321.7450,3.561319\n322.0313,3.546252\n322.8085,3.514556\n324.3221,3.450389\n326.8174,3.320561\n326.8174,3.320561\n328.0822,3.275164\n329.2898,3.227683\n330.4606,3.177957\n331.6153,3.125816\n332.7742,3.071088\n333.9581,3.013608\n335.1875,2.953229\n336.4829,2.889854\n337.8649,2.823474\n##END=\n'