b"##TITLE=2-Butanethiol, 3-methyl-\n##JCAMP-DX=4.24\n##DATA TYPE=UV/VIS SPECTRUM\n##ORIGIN=INSTITUTE OF ENERGY PROBLEMS OF CHEMICAL PHYSICS, RAS\n##OWNER=INEP CP RAS, NIST OSRD\nCollection (C) 2007 copyright by the U.S. Secretary of Commerce\non behalf of the United States of America. All rights reserved.\n##CAS REGISTRY NO=2084-18-6\n##MOLFORM=C5H12S\n##SOURCE REFERENCE=RAS UV No. 20097\n##$NIST SQUIB=1969BOL/87\n##$NIST SOURCE=TYUGLMTE\n##SPECTROMETER/DATA SYSTEM=unknown\n##XUNITS=Wavelength (nm)\n##YUNITS=Logarithm epsilon\n##XFACTOR=1.0\n##YFACTOR=1.0\n##FIRSTX=215.36\n##LASTX=273.41\n##FIRSTY=2.187\n##MAXX=273.41\n##MINX=215.36\n##MAXY=2.187\n##MINY=0.553\n##NPOINTS=110\n##$REF AUTHOR=Bol'shakov, G.F.; et al.\n##$REF JOURNAL=Ultraviolet spectra of heteroorganic compounds\n##$REF PAGE=87\n##$REF DATE=1969\n##XYPOINTS=(XY..XY)\n215.36,2.187\n215.53,2.187\n215.69,2.185\n215.86,2.185\n216.03,2.185\n216.20,2.183\n216.37,2.183\n216.54,2.181\n216.71,2.181\n216.88,2.181\n217.04,2.179\n217.21,2.179\n217.38,2.177\n217.55,2.177\n217.72,2.174\n217.89,2.174\n218.06,2.174\n218.22,2.172\n218.39,2.172\n218.56,2.170\n218.73,2.170\n218.90,2.168\n219.07,2.168\n219.24,2.168\n219.41,2.166\n219.57,2.166\n219.74,2.164\n219.91,2.164\n220.08,2.162\n220.25,2.162\n220.42,2.162\n220.76,2.160\n221.43,2.158\n222.11,2.149\n222.78,2.147\n223.46,2.141\n224.13,2.137\n224.81,2.130\n225.48,2.126\n226.16,2.120\n226.83,2.112\n227.51,2.107\n228.18,2.099\n228.86,2.091\n229.53,2.082\n230.21,2.076\n230.88,2.070\n231.56,2.061\n232.23,2.051\n232.91,2.040\n233.58,2.030\n234.26,2.023\n234.93,2.013\n235.61,2.000\n236.28,1.990\n236.96,1.979\n237.63,1.963\n238.31,1.952\n238.98,1.942\n239.66,1.929\n240.33,1.912\n241.01,1.898\n241.68,1.881\n242.36,1.860\n243.03,1.841\n243.71,1.828\n244.38,1.805\n245.06,1.784\n245.73,1.759\n246.41,1.732\n247.08,1.713\n247.76,1.684\n248.43,1.652\n249.11,1.616\n249.78,1.593\n250.46,1.554\n251.13,1.512\n251.81,1.472\n252.48,1.394\n253.16,1.346\n253.83,1.285\n254.51,1.235\n255.18,1.182\n255.86,1.134\n256.53,1.100\n257.21,1.058\n257.88,1.021\n258.56,0.996\n259.23,0.960\n259.91,0.928\n260.58,0.901\n261.26,0.876\n261.93,0.851\n262.61,0.826\n263.28,0.803\n263.96,0.779\n264.63,0.759\n265.31,0.738\n265.98,0.721\n266.66,0.700\n267.33,0.681\n268.01,0.662\n268.68,0.647\n269.36,0.633\n270.03,0.618\n270.71,0.603\n271.38,0.589\n272.06,0.578\n272.73,0.566\n273.41,0.553\n##END=\n"