b'##TITLE=2,4-Thiazolidinedione\n##JCAMP-DX=4.24\n##DATA TYPE=UV/VIS SPECTRUM\n##ORIGIN=INSTITUTE OF ENERGY PROBLEMS OF CHEMICAL PHYSICS, RAS\n##OWNER=INEP CP RAS, NIST OSRD\nCollection (C) 2007 copyright by the U.S. Secretary of Commerce\non behalf of the United States of America. All rights reserved.\n##CAS REGISTRY NO=2295-31-0\n##MOLFORM=C3H3NO2S\n##MP=128\n##BP=179(19)\n##SOURCE REFERENCE=RAS UV No. 5\n##$NIST SQUIB=1962BAR/GOR1199-1202\n##$NIST SOURCE=TSGMTE\n##SPECTROMETER/DATA SYSTEM=Spectrophotometer SF-4\n##XUNITS=Wavelength (nm)\n##YUNITS=Logarithm epsilon\n##XFACTOR=1.000000\n##YFACTOR=1.000000\n##FIRSTX=211.2369\n##LASTX=236.4241\n##FIRSTY=3.61785\n##MAXX=236.424\n##MINX=211.237\n##MAXY=3.61785\n##MINY=3.30647\n##NPOINTS=22\n##$REF AUTHOR=Baranov, S.N.; Gorizdra, T.E.\n##$REF TITLE=Synthesis of pteridines from 4,5-diaminopyrimidines and aromatic \xabalpha\xbb-ketoacids. IV. Alkylation of some thionopteridines\n##$REF JOURNAL=Zh. Obshch. Khim.\n##$REF VOLUME=32\n##$REF PAGE=1199-1202\n##$REF DATE=1962\n##XYPOINTS=(XY..XY)\n211.2369,3.617845\n211.7987,3.604192\n212.3605,3.590540\n212.9223,3.576887\n214.1940,3.551132\n214.5476,3.546499\n214.9012,3.541867\n215.2547,3.537234\n217.9759,3.508165\n219.4134,3.494671\n220.4913,3.485666\n221.4556,3.478011\n222.5526,3.468570\n229.6955,3.405317\n230.5760,3.393345\n231.4704,3.381349\n232.3743,3.369304\n233.2830,3.357188\n235.5576,3.325786\n235.8279,3.319346\n236.1204,3.312906\n236.4241,3.306467\n##END=\n'