b'##TITLE=Carbonotrithioic acid, dimethyl ester\n##JCAMP-DX=4.24\n##DATA TYPE=UV/VIS SPECTRUM\n##ORIGIN=INSTITUTE OF ENERGY PROBLEMS OF CHEMICAL PHYSICS, RAS\n##OWNER=INEP CP RAS, NIST OSRD\nCollection (C) 2007 copyright by the U.S. Secretary of Commerce\non behalf of the United States of America. All rights reserved.\n##CAS REGISTRY NO=2314-48-9\n##MOLFORM=C3H6S3\n##BP=106/17 mm\n##SOURCE REFERENCE=RAS UV No. 14560\n##$NIST SQUIB=1960JAN464\n##$NIST SOURCE=TYUGLMTE\n##SPECTROMETER/DATA SYSTEM=unknown\n##XUNITS=Wavelength (nm)\n##YUNITS=Logarithm epsilon\n##XFACTOR=1.0\n##YFACTOR=1.0\n##FIRSTX=217.64\n##LASTX=469.45\n##FIRSTY=3.292\n##MAXX=469.45\n##MINX=217.64\n##MAXY=4.053\n##MINY=0.666\n##NPOINTS=208\n##$REF AUTHOR=Janssen, M.J.\n##$REF JOURNAL=Rec. trav. chim.\n##$REF VOLUME=79\n##$REF PAGE=464\n##$REF DATE=1960\n##XYPOINTS=(XY..XY)\n217.64,3.292\n219.86,3.287\n222.07,3.301\n223.80,3.325\n225.52,3.354\n227.25,3.382\n229.22,3.406\n231.19,3.425\n233.41,3.434\n235.62,3.430\n237.60,3.415\n239.57,3.392\n241.29,3.368\n242.77,3.339\n244.25,3.311\n245.23,3.273\n246.47,3.239\n247.45,3.201\n248.68,3.163\n249.42,3.125\n250.41,3.087\n251.15,3.049\n251.89,3.011\n252.63,2.973\n253.36,2.935\n254.10,2.897\n254.84,2.859\n255.58,2.821\n256.32,2.783\n256.81,2.740\n257.80,2.702\n258.54,2.664\n260.02,2.631\n261.99,2.654\n262.97,2.692\n263.71,2.735\n264.21,2.778\n264.94,2.821\n265.44,2.864\n265.93,2.906\n266.42,2.949\n266.92,2.992\n267.66,3.035\n268.15,3.078\n268.64,3.121\n269.13,3.163\n269.87,3.206\n270.37,3.249\n270.86,3.292\n271.60,3.335\n272.09,3.377\n272.83,3.415\n273.57,3.453\n274.31,3.492\n275.05,3.534\n276.03,3.572\n276.77,3.610\n277.76,3.649\n278.74,3.687\n279.73,3.725\n280.96,3.763\n281.70,3.801\n283.18,3.834\n284.16,3.872\n285.40,3.905\n287.12,3.929\n288.84,3.958\n290.57,3.982\n292.29,4.005\n294.27,4.024\n296.24,4.043\n298.45,4.048\n300.67,4.053\n302.89,4.053\n304.86,4.034\n307.08,4.020\n309.05,4.001\n310.53,3.967\n312.01,3.934\n313.48,3.901\n314.72,3.867\n315.95,3.834\n317.18,3.801\n318.16,3.763\n319.15,3.725\n320.14,3.687\n321.12,3.649\n322.35,3.610\n323.09,3.572\n324.08,3.534\n325.06,3.496\n326.05,3.458\n326.79,3.420\n327.77,3.382\n328.51,3.344\n329.25,3.306\n329.99,3.268\n330.73,3.230\n331.47,3.192\n332.21,3.154\n332.95,3.116\n333.69,3.073\n334.18,3.030\n335.17,2.992\n335.90,2.949\n336.40,2.906\n337.14,2.868\n337.88,2.826\n338.37,2.783\n339.11,2.745\n339.60,2.702\n340.34,2.659\n340.83,2.616\n341.33,2.573\n341.82,2.531\n342.56,2.488\n343.05,2.445\n343.54,2.402\n344.04,2.359\n344.77,2.317\n345.27,2.274\n345.76,2.231\n346.25,2.188\n346.99,2.145\n347.49,2.103\n347.98,2.060\n348.47,2.017\n348.96,1.974\n349.70,1.936\n350.20,1.893\n350.93,1.850\n351.43,1.808\n351.92,1.765\n352.66,1.727\n353.15,1.684\n353.89,1.641\n354.38,1.598\n354.88,1.555\n355.62,1.517\n356.11,1.475\n356.85,1.432\n357.59,1.389\n358.33,1.351\n359.07,1.313\n360.05,1.275\n361.28,1.237\n362.51,1.199\n364.24,1.170\n365.96,1.146\n368.18,1.132\n370.15,1.146\n372.12,1.161\n374.10,1.180\n376.07,1.199\n378.04,1.223\n380.01,1.242\n381.98,1.261\n384.20,1.280\n386.17,1.299\n388.14,1.318\n390.11,1.337\n392.08,1.360\n394.05,1.375\n396.02,1.389\n398.24,1.413\n400.21,1.432\n402.18,1.451\n404.15,1.470\n406.37,1.484\n408.34,1.503\n410.31,1.522\n412.53,1.532\n414.50,1.546\n416.72,1.551\n418.94,1.551\n421.16,1.551\n423.37,1.551\n425.59,1.546\n427.81,1.536\n429.78,1.522\n431.75,1.508\n433.97,1.494\n435.69,1.470\n437.42,1.446\n438.90,1.418\n440.62,1.394\n442.34,1.365\n444.32,1.341\n445.79,1.313\n447.03,1.280\n448.26,1.246\n449.98,1.223\n451.21,1.189\n452.45,1.156\n453.93,1.127\n455.16,1.094\n456.39,1.061\n457.62,1.027\n458.85,0.989\n460.08,0.956\n461.32,0.923\n462.55,0.885\n463.78,0.851\n465.01,0.813\n466.24,0.780\n467.23,0.742\n468.46,0.704\n469.45,0.666\n##END=\n'