b'##TITLE=1H-Imidazole, 1-acetyl-\n##JCAMP-DX=4.24\n##DATA TYPE=UV/VIS SPECTRUM\n##ORIGIN=INSTITUTE OF ENERGY PROBLEMS OF CHEMICAL PHYSICS, RAS\n##OWNER=INEP CP RAS, NIST OSRD\nCollection (C) 2007 copyright by the U.S. Secretary of Commerce\non behalf of the United States of America. All rights reserved.\n##CAS REGISTRY NO=2466-76-4\n##MOLFORM=C5H6N2O\n##SOURCE REFERENCE=RAS UV No. 16804\n##$NIST SQUIB=1986HIT/556\n##$NIST SOURCE=TYUGLMTE\n##SPECTROMETER/DATA SYSTEM=Cary 17\n##XUNITS=Wavelength (nm)\n##YUNITS=Logarithm epsilon\n##XFACTOR=1.0\n##YFACTOR=1.0\n##FIRSTX=204.69\n##LASTX=279.44\n##FIRSTY=2.901\n##MAXX=279.44\n##MINX=204.69\n##MAXY=3.404\n##MINY=2.241\n##NPOINTS=176\n##$REF AUTHOR=Hital, R.; et al.\n##$REF JOURNAL=Appl. Spectroscopy\n##$REF VOLUME=40\n##$REF PAGE=556\n##$REF DATE=1986\n##XYPOINTS=(XY..XY)\n204.69,2.901\n204.79,2.919\n204.88,2.936\n204.97,2.953\n205.07,2.969\n205.25,2.985\n205.44,3.000\n205.53,3.015\n205.72,3.029\n206.00,3.041\n206.28,3.053\n206.56,3.066\n206.74,3.078\n206.93,3.090\n207.21,3.102\n207.49,3.114\n207.68,3.125\n207.95,3.136\n208.23,3.147\n208.51,3.157\n208.79,3.167\n209.07,3.177\n209.26,3.187\n209.54,3.196\n209.82,3.206\n210.10,3.215\n210.38,3.223\n210.66,3.231\n210.94,3.239\n211.31,3.247\n211.59,3.254\n211.87,3.262\n212.24,3.269\n212.61,3.276\n212.89,3.284\n213.27,3.291\n213.55,3.298\n213.92,3.304\n214.29,3.311\n214.57,3.318\n214.94,3.324\n215.22,3.330\n215.69,3.337\n215.97,3.343\n216.25,3.349\n216.72,3.354\n217.09,3.360\n217.37,3.366\n217.83,3.372\n218.30,3.377\n218.67,3.382\n219.14,3.388\n219.51,3.393\n219.98,3.399\n220.44,3.404\n221.28,3.404\n221.94,3.401\n222.40,3.396\n222.87,3.391\n223.15,3.386\n223.52,3.381\n223.89,3.375\n224.17,3.369\n224.36,3.362\n224.64,3.357\n224.92,3.351\n225.29,3.345\n225.66,3.339\n226.13,3.333\n226.60,3.327\n227.15,3.323\n227.62,3.317\n228.27,3.313\n229.11,3.311\n229.95,3.311\n230.79,3.312\n231.44,3.316\n232.09,3.320\n232.75,3.324\n233.40,3.327\n234.05,3.332\n234.70,3.337\n235.36,3.340\n236.01,3.345\n236.66,3.349\n237.31,3.352\n237.97,3.356\n238.62,3.359\n239.36,3.363\n240.02,3.367\n240.76,3.369\n241.41,3.373\n242.16,3.375\n243.00,3.377\n243.84,3.378\n244.68,3.378\n245.51,3.376\n246.35,3.374\n247.10,3.371\n247.75,3.367\n248.31,3.363\n248.87,3.359\n249.52,3.354\n249.99,3.349\n250.55,3.345\n251.11,3.340\n251.57,3.333\n252.13,3.328\n252.60,3.322\n252.97,3.316\n253.44,3.310\n253.81,3.304\n254.18,3.297\n254.56,3.290\n254.93,3.283\n255.30,3.276\n255.67,3.269\n255.95,3.262\n256.42,3.255\n256.79,3.248\n257.07,3.240\n257.35,3.233\n257.63,3.225\n257.91,3.217\n258.28,3.209\n258.56,3.201\n258.84,3.192\n259.12,3.184\n259.49,3.175\n259.87,3.166\n260.15,3.157\n260.43,3.148\n260.80,3.138\n261.08,3.129\n261.45,3.119\n261.73,3.109\n262.10,3.098\n262.48,3.088\n262.76,3.077\n263.13,3.066\n263.60,3.056\n263.88,3.044\n264.16,3.032\n264.43,3.019\n264.81,3.007\n265.18,2.993\n265.46,2.980\n265.93,2.968\n266.21,2.953\n266.58,2.938\n266.95,2.923\n267.42,2.907\n267.88,2.890\n268.26,2.873\n268.63,2.855\n269.00,2.836\n269.47,2.817\n269.84,2.796\n270.21,2.774\n270.68,2.752\n271.05,2.728\n271.52,2.706\n271.89,2.679\n272.36,2.654\n272.82,2.624\n273.29,2.596\n273.75,2.565\n274.22,2.528\n274.69,2.492\n275.15,2.454\n275.81,2.424\n276.46,2.385\n277.20,2.349\n277.95,2.327\n278.69,2.286\n279.44,2.241\n##END=\n'