b'##TITLE=3-Nitropyridine\n##JCAMP-DX=4.24\n##DATA TYPE=UV/VIS SPECTRUM\n##ORIGIN=INSTITUTE OF ENERGY PROBLEMS OF CHEMICAL PHYSICS, RAS\n##OWNER=INEP CP RAS, NIST OSRD\nCollection (C) 2007 copyright by the U.S. Secretary of Commerce\non behalf of the United States of America. All rights reserved.\n##CAS REGISTRY NO=2530-26-9\n##MOLFORM=C5H4N2O2\n##SOURCE REFERENCE=RAS UV No. 14591\n##$NIST SQUIB=1968TOM/SKR1427\n##$NIST SOURCE=TYUGLMTE\n##SPECTROMETER/DATA SYSTEM=Unicam SP 700\n##XUNITS=Wavelength (nm)\n##YUNITS=Logarithm epsilon\n##XFACTOR=1.0\n##YFACTOR=1.0\n##FIRSTX=204.21\n##LASTX=354.92\n##FIRSTY=4.026\n##MAXX=354.92\n##MINX=204.21\n##MAXY=4.026\n##MINY=2.259\n##NPOINTS=111\n##$REF AUTHOR=Tomasik, P.; Skrowaczewska, Z.\n##$REF JOURNAL=Roczniki Chem.\n##$REF VOLUME=42\n##$REF PAGE=1427\n##$REF DATE=1968\n##XYPOINTS=(XY..XY)\n204.21,4.026\n205.06,4.018\n205.92,4.013\n206.80,4.001\n207.67,3.976\n208.56,3.942\n209.45,3.914\n210.35,3.877\n211.26,3.838\n212.18,3.803\n213.10,3.744\n214.03,3.704\n214.97,3.682\n215.92,3.660\n216.88,3.645\n217.84,3.635\n218.82,3.630\n219.80,3.630\n220.79,3.630\n221.79,3.635\n222.80,3.642\n223.82,3.652\n224.85,3.665\n225.89,3.675\n226.94,3.694\n227.99,3.707\n229.06,3.712\n230.14,3.727\n231.23,3.736\n232.32,3.749\n233.43,3.761\n234.55,3.773\n235.68,3.781\n236.82,3.788\n237.97,3.791\n239.14,3.793\n240.31,3.796\n241.50,3.798\n242.70,3.798\n243.91,3.796\n245.13,3.788\n246.36,3.781\n247.61,3.773\n248.87,3.759\n250.14,3.739\n251.43,3.727\n252.72,3.712\n254.04,3.692\n255.36,3.682\n256.70,3.667\n258.06,3.652\n259.42,3.638\n260.81,3.630\n262.20,3.623\n263.62,3.620\n265.04,3.620\n266.49,3.618\n267.95,3.618\n269.42,3.610\n270.91,3.603\n272.42,3.593\n273.95,3.578\n275.49,3.568\n277.05,3.554\n278.63,3.519\n280.22,3.482\n281.84,3.445\n283.47,3.413\n286.79,3.301\n288.48,3.250\n290.20,3.183\n291.93,3.089\n293.68,3.020\n295.45,2.933\n297.25,2.881\n299.06,2.837\n302.77,2.748\n304.65,2.723\n306.56,2.703\n308.49,2.691\n310.45,2.679\n312.43,2.664\n314.44,2.652\n316.47,2.637\n318.53,2.622\n320.62,2.610\n322.74,2.600\n323.80,2.592\n324.34,2.590\n324.88,2.587\n325.42,2.585\n325.96,2.582\n326.50,2.580\n327.05,2.575\n327.60,2.572\n328.15,2.570\n328.70,2.568\n332.04,2.538\n334.31,2.518\n337.19,2.498\n339.53,2.479\n341.31,2.456\n344.31,2.437\n345.53,2.414\n347.37,2.392\n348.60,2.370\n350.48,2.348\n351.74,2.325\n353.00,2.303\n354.28,2.281\n354.92,2.259\n##END=\n'