b'##TITLE=2(1H)-Pyridinethione\n##JCAMP-DX=4.24\n##DATA TYPE=UV/VIS SPECTRUM\n##ORIGIN=INSTITUTE OF ENERGY PROBLEMS OF CHEMICAL PHYSICS, RAS\n##OWNER=INEP CP RAS, NIST OSRD\nCollection (C) 2007 copyright by the U.S. Secretary of Commerce\non behalf of the United States of America. All rights reserved.\n##CAS REGISTRY NO=2637-34-5\n##MOLFORM=C5H5NS\n##MP=124-126\n##SOURCE REFERENCE=RAS UV No. 19700\n##$NIST SQUIB=1962LAN317\n##$NIST SOURCE=TYUGLMTE\n##SPECTROMETER/DATA SYSTEM=Cary Model 14\n##XUNITS=Wavelength (nm)\n##YUNITS=Logarithm epsilon\n##XFACTOR=1.0\n##YFACTOR=1.0\n##FIRSTX=204.47\n##LASTX=399.02\n##FIRSTY=4.084\n##MAXX=399.02\n##MINX=204.47\n##MAXY=4.101\n##MINY=2.896\n##NPOINTS=175\n##$REF AUTHOR=Lang (editor), L.\n##$REF JOURNAL=Absorption Spectra in the Ultraviolet and Visible Region\n##$REF VOLUME=3\n##$REF PAGE=317\n##$REF DATE=1962\n##XYPOINTS=(XY..XY)\n204.47,4.084\n205.33,4.061\n206.36,4.037\n207.22,4.014\n208.26,3.990\n209.29,3.970\n210.32,3.946\n211.35,3.926\n212.21,3.903\n213.25,3.879\n214.45,3.859\n215.65,3.839\n216.86,3.819\n218.23,3.802\n219.44,3.785\n220.64,3.769\n221.85,3.748\n223.05,3.728\n224.25,3.712\n225.46,3.695\n226.66,3.678\n228.04,3.661\n229.24,3.644\n230.45,3.624\n231.82,3.608\n233.20,3.594\n234.58,3.577\n235.78,3.561\n237.16,3.544\n238.53,3.527\n240.08,3.520\n241.63,3.514\n243.00,3.524\n244.38,3.537\n245.58,3.557\n246.79,3.577\n247.82,3.597\n248.68,3.621\n249.54,3.644\n250.57,3.668\n251.43,3.695\n252.29,3.718\n253.33,3.738\n254.19,3.765\n255.22,3.789\n256.08,3.812\n257.11,3.836\n257.97,3.859\n259.00,3.883\n260.03,3.906\n261.07,3.930\n261.93,3.953\n262.96,3.973\n263.82,4.000\n265.02,4.017\n266.05,4.040\n267.09,4.061\n268.46,4.077\n269.84,4.091\n271.39,4.101\n272.93,4.094\n274.31,4.081\n275.52,4.064\n276.72,4.044\n277.75,4.020\n278.78,3.997\n279.64,3.973\n280.68,3.950\n281.36,3.923\n282.22,3.899\n282.74,3.873\n283.60,3.849\n284.46,3.822\n285.15,3.795\n286.01,3.772\n286.70,3.745\n287.38,3.718\n288.24,3.695\n288.93,3.668\n289.62,3.641\n290.48,3.614\n291.17,3.587\n292.03,3.564\n292.89,3.537\n293.92,3.514\n294.95,3.493\n296.33,3.477\n297.88,3.473\n299.43,3.470\n300.97,3.477\n302.35,3.487\n303.55,3.504\n304.76,3.524\n305.79,3.544\n307.17,3.561\n308.37,3.581\n309.40,3.601\n310.61,3.621\n311.81,3.638\n313.01,3.655\n314.22,3.675\n315.42,3.691\n316.63,3.708\n317.83,3.725\n319.04,3.742\n320.24,3.759\n321.44,3.775\n322.65,3.792\n324.02,3.809\n325.40,3.826\n326.60,3.842\n327.81,3.859\n329.18,3.876\n330.56,3.889\n331.94,3.903\n333.31,3.913\n334.69,3.923\n336.24,3.930\n337.61,3.940\n339.16,3.943\n340.71,3.946\n342.26,3.946\n343.81,3.946\n345.35,3.943\n346.90,3.940\n348.28,3.930\n349.83,3.923\n351.37,3.913\n352.75,3.903\n354.13,3.889\n355.50,3.873\n356.88,3.859\n358.26,3.842\n359.46,3.826\n360.84,3.809\n362.04,3.792\n363.24,3.775\n364.45,3.755\n365.48,3.735\n366.51,3.715\n367.37,3.691\n368.40,3.671\n369.26,3.648\n370.30,3.628\n371.16,3.604\n372.19,3.581\n373.05,3.557\n374.08,3.534\n374.94,3.510\n375.80,3.487\n376.66,3.463\n377.69,3.440\n378.55,3.416\n379.41,3.393\n380.27,3.366\n381.31,3.342\n382.17,3.316\n383.03,3.292\n384.06,3.269\n384.75,3.242\n385.61,3.218\n386.29,3.191\n387.33,3.168\n388.19,3.144\n389.22,3.121\n390.08,3.098\n391.11,3.074\n391.97,3.051\n392.83,3.024\n393.69,3.000\n394.72,2.980\n395.75,2.960\n396.79,2.936\n397.82,2.916\n399.02,2.896\n##END=\n'