b'##TITLE=1,3,5,7-Tetrazocine, octahydro-1,3,5,7-tetranitro-\n##JCAMP-DX=4.24\n##DATA TYPE=UV/VIS SPECTRUM\n##ORIGIN=INSTITUTE OF ENERGY PROBLEMS OF CHEMICAL PHYSICS, RAS\n##OWNER=INEP CP RAS, NIST OSRD\nCollection (C) 2007 copyright by the U.S. Secretary of Commerce\non behalf of the United States of America. All rights reserved.\n##CAS REGISTRY NO=2691-41-0\n##MOLFORM=C4H8N8O8\n##MP=278.5-280\n##SOURCE REFERENCE=RAS UV No. 10588\n##$NIST SQUIB=1949JON/THO828\n##$NIST SOURCE=TYUGLMTE\n##SPECTROMETER/DATA SYSTEM=n.i.g.\n##XUNITS=Wavelength (nm)\n##YUNITS=Logarithm epsilon\n##XFACTOR=1.0\n##YFACTOR=1.0\n##FIRSTX=207.41\n##LASTX=292.83\n##FIRSTY=4.228\n##MAXX=292.83\n##MINX=207.41\n##MAXY=4.304\n##MINY=2.555\n##NPOINTS=90\n##$REF AUTHOR=Jones, R.N.; Thorn, G.D.\n##$REF JOURNAL=Can. J. Reseach\n##$REF VOLUME=27B\n##$REF PAGE=828\n##$REF DATE=1949\n##XYPOINTS=(XY..XY)\n207.41,4.228\n207.62,4.228\n207.82,4.232\n208.03,4.232\n208.23,4.232\n208.44,4.236\n208.64,4.236\n208.85,4.236\n209.06,4.236\n209.26,4.241\n209.47,4.241\n209.67,4.241\n209.88,4.245\n210.09,4.245\n210.29,4.245\n210.50,4.245\n211.53,4.241\n212.56,4.245\n213.58,4.253\n214.61,4.257\n215.64,4.262\n217.70,4.278\n218.73,4.283\n219.76,4.287\n220.79,4.291\n221.82,4.299\n222.85,4.299\n223.88,4.304\n225.93,4.304\n227.99,4.304\n229.02,4.299\n230.05,4.291\n231.08,4.283\n232.11,4.274\n233.14,4.262\n234.17,4.236\n236.23,4.194\n237.26,4.169\n238.28,4.148\n239.31,4.123\n240.34,4.090\n241.37,4.060\n242.40,4.031\n243.43,3.997\n244.46,3.976\n245.49,3.930\n246.52,3.909\n247.55,3.876\n248.58,3.825\n249.61,3.775\n250.63,3.725\n251.66,3.674\n252.69,3.612\n253.72,3.582\n254.75,3.557\n255.78,3.515\n256.81,3.482\n257.84,3.444\n258.87,3.398\n259.90,3.360\n260.93,3.314\n261.96,3.280\n264.01,3.221\n265.04,3.196\n266.07,3.163\n267.10,3.133\n268.13,3.108\n269.16,3.091\n270.19,3.062\n272.25,3.041\n273.28,3.020\n274.31,3.003\n275.33,2.982\n276.36,2.957\n277.39,2.936\n278.42,2.915\n279.45,2.878\n280.48,2.852\n281.51,2.848\n282.54,2.819\n283.57,2.794\n284.60,2.773\n285.63,2.748\n286.66,2.718\n287.68,2.689\n288.71,2.664\n289.74,2.639\n290.77,2.613\n291.80,2.584\n292.83,2.555\n##END=\n'