b'##TITLE=Methyl diazene\n##JCAMP-DX=4.24\n##DATA TYPE=UV/VIS SPECTRUM\n##ORIGIN=INSTITUTE OF ENERGY PROBLEMS OF CHEMICAL PHYSICS, RAS\n##OWNER=INEP CP RAS, NIST OSRD\nCollection (C) 2007 copyright by the U.S. Secretary of Commerce\non behalf of the United States of America. All rights reserved.\n##CAS REGISTRY NO=26981-93-1\n##MOLFORM=CH4N2\n##SOURCE REFERENCE=RAS UV No. 17450\n##$NIST SQUIB=1976VID/559\n##$NIST SOURCE=TYUGLMTE\n##SPECTROMETER/DATA SYSTEM=unknown\n##XUNITS=Wavelength (nm)\n##YUNITS=Logarithm epsilon\n##XFACTOR=1.0\n##YFACTOR=1.0\n##FIRSTX=239\n##LASTX=419.78\n##FIRSTY=0.683\n##MAXX=419.78\n##MINX=239\n##MAXY=0.737\n##MINY=-0.614\n##NPOINTS=197\n##$REF AUTHOR=Vidyarthi, S.K.; et al.\n##$REF JOURNAL=J. Phys. Chem.\n##$REF VOLUME=80\n##$REF PAGE=559\n##$REF DATE=1976\n##XYPOINTS=(XY..XY)\n239.00,0.683\n239.25,0.679\n239.51,0.675\n239.77,0.671\n240.03,0.668\n240.80,0.642\n241.58,0.622\n242.35,0.605\n243.13,0.589\n243.90,0.569\n244.68,0.546\n245.45,0.520\n246.23,0.489\n247.00,0.455\n247.78,0.416\n248.55,0.383\n249.33,0.348\n250.10,0.312\n250.88,0.273\n251.65,0.231\n252.43,0.183\n253.20,0.143\n253.98,0.102\n254.75,0.063\n255.52,0.027\n256.30,-0.012\n257.07,-0.047\n257.85,-0.086\n258.62,-0.113\n259.40,-0.142\n260.17,-0.174\n260.95,-0.208\n262.41,-0.252\n263.67,-0.290\n265.18,-0.334\n267.15,-0.378\n269.21,-0.424\n271.28,-0.464\n273.35,-0.509\n275.41,-0.545\n277.55,-0.588\n280.06,-0.614\n282.38,-0.614\n284.71,-0.600\n287.14,-0.568\n289.29,-0.529\n291.17,-0.486\n293.23,-0.443\n295.04,-0.396\n296.85,-0.344\n298.40,-0.291\n299.95,-0.244\n301.50,-0.202\n302.79,-0.163\n304.08,-0.123\n305.37,-0.090\n306.40,-0.056\n307.69,-0.024\n308.73,0.006\n309.76,0.034\n311.05,0.060\n311.83,0.085\n312.60,0.108\n313.63,0.130\n314.41,0.151\n315.44,0.171\n316.22,0.190\n316.99,0.211\n317.77,0.229\n318.80,0.245\n319.58,0.264\n320.09,0.281\n320.87,0.298\n321.64,0.314\n322.42,0.330\n322.93,0.345\n323.71,0.359\n324.48,0.373\n325.00,0.387\n325.77,0.400\n326.29,0.413\n326.81,0.426\n327.32,0.438\n328.10,0.450\n328.61,0.461\n329.13,0.472\n329.65,0.483\n330.42,0.494\n330.94,0.504\n331.46,0.514\n331.97,0.524\n332.49,0.534\n333.00,0.543\n333.52,0.553\n333.91,0.562\n334.30,0.571\n334.81,0.579\n335.33,0.588\n335.85,0.596\n336.36,0.604\n336.88,0.613\n337.40,0.620\n337.91,0.628\n338.43,0.636\n339.20,0.643\n339.76,0.651\n340.49,0.658\n341.27,0.665\n342.04,0.672\n342.82,0.679\n343.59,0.686\n344.69,0.694\n345.66,0.698\n346.69,0.704\n347.98,0.710\n349.02,0.716\n350.57,0.721\n351.86,0.726\n353.67,0.730\n355.47,0.734\n357.54,0.737\n359.86,0.737\n362.19,0.736\n364.26,0.733\n366.06,0.729\n367.35,0.724\n368.90,0.719\n369.88,0.715\n371.27,0.708\n372.22,0.702\n373.02,0.695\n373.81,0.690\n374.45,0.684\n374.84,0.680\n375.10,0.678\n375.36,0.676\n375.62,0.675\n376.14,0.671\n376.91,0.665\n377.69,0.657\n378.46,0.650\n379.23,0.641\n380.01,0.632\n380.78,0.623\n381.56,0.613\n382.33,0.603\n383.11,0.593\n383.88,0.583\n384.66,0.572\n385.43,0.561\n386.21,0.549\n386.98,0.535\n387.76,0.523\n388.53,0.510\n389.31,0.496\n390.08,0.483\n390.86,0.470\n391.63,0.456\n392.41,0.440\n393.18,0.426\n393.96,0.412\n394.73,0.396\n395.51,0.380\n396.28,0.363\n397.06,0.343\n397.83,0.326\n398.60,0.307\n399.38,0.289\n400.15,0.270\n400.93,0.252\n401.70,0.231\n402.48,0.211\n403.25,0.190\n404.03,0.174\n404.80,0.154\n405.58,0.135\n406.35,0.114\n407.13,0.099\n407.90,0.079\n408.68,0.057\n409.45,0.041\n410.23,0.020\n411.00,-0.005\n411.66,-0.025\n412.37,-0.047\n413.04,-0.065\n413.58,-0.082\n413.84,-0.090\n414.10,-0.099\n414.36,-0.104\n415.09,-0.121\n415.91,-0.142\n416.68,-0.168\n417.46,-0.190\n418.23,-0.219\n419.01,-0.244\n419.78,-0.277\n##END=\n'