b'##TITLE=Thiourea, tetramethyl-\n##JCAMP-DX=4.24\n##DATA TYPE=UV/VIS SPECTRUM\n##ORIGIN=INSTITUTE OF ENERGY PROBLEMS OF CHEMICAL PHYSICS, RAS\n##OWNER=INEP CP RAS, NIST OSRD\nCollection (C) 2007 copyright by the U.S. Secretary of Commerce\non behalf of the United States of America. All rights reserved.\n##CAS REGISTRY NO=2782-91-4\n##MOLFORM=C5H12N2S\n##MP=46.3\n##BP=332; 190/ 16 mm\n##SOURCE REFERENCE=RAS UV No. 11276\n##$NIST SQUIB=1949KOC401\n##$NIST SOURCE=TYUGLMTE\n##SPECTROMETER/DATA SYSTEM=n.i.g.\n##XUNITS=Wavelength (nm)\n##YUNITS=Logarithm epsilon\n##XFACTOR=1.0\n##YFACTOR=1.0\n##FIRSTX=218.97\n##LASTX=335.99\n##FIRSTY=4.151\n##MAXX=335.99\n##MINX=218.97\n##MAXY=4.242\n##MINY=3.014\n##NPOINTS=233\n##$REF AUTHOR=Koch, H.P.\n##$REF JOURNAL=J. Chem. Soc.\n##$REF PAGE=401\n##$REF DATE=1949\n##XYPOINTS=(XY..XY)\n218.97,4.151\n219.21,4.148\n219.59,4.142\n220.00,4.135\n220.51,4.126\n221.03,4.117\n221.54,4.108\n222.09,4.095\n222.56,4.083\n223.08,4.068\n223.55,4.056\n224.06,4.043\n224.54,4.030\n225.12,4.018\n225.63,4.008\n226.15,3.996\n226.67,3.983\n227.22,3.969\n227.69,3.959\n228.21,3.946\n228.72,3.932\n229.30,3.918\n229.79,3.905\n230.26,3.895\n230.77,3.881\n231.38,3.865\n231.79,3.853\n232.31,3.838\n232.82,3.821\n233.33,3.804\n233.90,3.787\n234.36,3.773\n234.96,3.759\n235.38,3.752\n235.90,3.746\n236.41,3.742\n236.92,3.738\n237.44,3.736\n237.95,3.736\n238.46,3.736\n238.97,3.736\n239.49,3.738\n240.00,3.740\n240.51,3.742\n241.03,3.744\n241.54,3.748\n242.05,3.752\n242.56,3.758\n243.08,3.764\n243.59,3.771\n244.10,3.777\n244.62,3.784\n245.13,3.792\n245.64,3.799\n246.15,3.807\n246.67,3.816\n247.18,3.831\n247.69,3.844\n248.21,3.863\n248.48,3.878\n248.72,3.896\n248.94,3.918\n249.10,3.932\n249.43,3.954\n249.80,3.968\n250.26,3.982\n250.77,3.992\n251.28,4.002\n251.79,4.009\n252.31,4.017\n252.82,4.027\n253.33,4.034\n253.85,4.041\n254.36,4.049\n254.87,4.055\n255.38,4.063\n255.89,4.071\n256.48,4.078\n256.92,4.085\n257.44,4.094\n257.95,4.101\n258.46,4.107\n258.97,4.113\n259.49,4.122\n260.00,4.130\n260.51,4.136\n261.03,4.142\n261.54,4.150\n262.04,4.157\n262.56,4.164\n263.08,4.168\n263.59,4.173\n264.10,4.178\n264.62,4.183\n265.13,4.187\n265.64,4.194\n266.15,4.198\n266.67,4.202\n267.18,4.206\n267.69,4.209\n268.21,4.213\n268.72,4.217\n269.23,4.220\n269.74,4.223\n270.26,4.225\n270.77,4.229\n271.28,4.231\n271.79,4.233\n272.31,4.234\n272.82,4.236\n273.33,4.237\n273.85,4.238\n274.36,4.240\n274.87,4.240\n275.38,4.241\n275.90,4.242\n276.41,4.242\n276.92,4.242\n277.44,4.241\n277.95,4.241\n278.46,4.240\n278.97,4.240\n279.49,4.238\n280.00,4.237\n280.51,4.235\n281.03,4.235\n281.54,4.233\n282.05,4.230\n282.56,4.228\n283.08,4.227\n283.59,4.223\n284.10,4.220\n284.62,4.218\n285.13,4.214\n285.64,4.211\n286.15,4.207\n286.67,4.204\n287.18,4.200\n287.69,4.197\n288.21,4.193\n288.72,4.190\n289.23,4.186\n289.74,4.181\n290.26,4.177\n290.77,4.173\n291.28,4.168\n291.79,4.163\n292.31,4.157\n292.82,4.155\n293.33,4.150\n293.85,4.144\n294.36,4.139\n294.87,4.132\n295.38,4.124\n295.90,4.117\n296.41,4.112\n296.92,4.106\n297.44,4.098\n297.95,4.088\n298.46,4.079\n298.97,4.072\n299.49,4.065\n300.00,4.055\n300.51,4.046\n301.03,4.035\n301.54,4.026\n302.05,4.021\n302.56,4.009\n303.08,3.999\n303.59,3.988\n304.10,3.977\n304.62,3.965\n305.13,3.959\n305.64,3.948\n306.15,3.939\n306.67,3.926\n307.18,3.910\n307.69,3.903\n308.21,3.896\n308.72,3.883\n309.23,3.870\n309.74,3.858\n310.26,3.847\n310.77,3.831\n311.28,3.826\n311.79,3.813\n312.31,3.797\n312.82,3.784\n313.33,3.771\n313.85,3.756\n314.36,3.742\n314.87,3.732\n315.38,3.720\n315.90,3.707\n316.41,3.691\n316.92,3.673\n317.44,3.658\n317.95,3.643\n318.46,3.631\n318.97,3.615\n319.49,3.606\n320.00,3.590\n320.51,3.572\n321.03,3.560\n321.54,3.541\n322.05,3.525\n322.56,3.508\n323.08,3.487\n323.59,3.472\n324.10,3.457\n324.62,3.445\n325.13,3.425\n325.64,3.408\n326.15,3.390\n326.67,3.372\n327.18,3.352\n327.69,3.332\n328.21,3.311\n328.72,3.294\n329.23,3.277\n329.74,3.253\n330.26,3.234\n330.77,3.214\n331.28,3.200\n331.79,3.186\n332.31,3.164\n332.82,3.140\n333.33,3.115\n333.76,3.101\n334.36,3.080\n334.87,3.061\n335.38,3.041\n335.99,3.014\n##END=\n'