b'##TITLE=Pyrimidine,4,6-difluoro-\n##JCAMP-DX=4.24\n##DATA TYPE=UV/VIS SPECTRUM\n##ORIGIN=INSTITUTE OF ENERGY PROBLEMS OF CHEMICAL PHYSICS, RAS\n##OWNER=INEP CP RAS, NIST OSRD\nCollection (C) 2007 copyright by the U.S. Secretary of Commerce\non behalf of the United States of America. All rights reserved.\n##CAS REGISTRY NO=2802-62-2\n##MOLFORM=C4H2F2N2\n##BP=110-111\n##SOURCE REFERENCE=RAS UV No. 18931\n##$NIST SQUIB=1975KOP142\n##$NIST SOURCE=TYUGLMTE\n##SPECTROMETER/DATA SYSTEM=SF-16\n##XUNITS=Wavelength (nm)\n##YUNITS=Logarithm epsilon\n##XFACTOR=1.0\n##YFACTOR=1.0\n##FIRSTX=202.45\n##LASTX=244.56\n##FIRSTY=3.573\n##MAXX=244.56\n##MINX=202.45\n##MAXY=3.573\n##MINY=2.525\n##NPOINTS=46\n##$REF AUTHOR=(editor), Koptyug V.A.\n##$REF JOURNAL=Atlas of Spectra of Aromatic and Heterocyclic Compounds\n##$REF VOLUME=8\n##$REF PAGE=142\n##$REF DATE=1975\n##XYPOINTS=(XY..XY)\n202.45,3.573\n202.94,3.568\n203.43,3.568\n203.92,3.568\n204.41,3.565\n205.39,3.556\n206.37,3.544\n207.34,3.530\n208.32,3.515\n209.30,3.493\n210.28,3.470\n211.26,3.430\n212.24,3.386\n213.22,3.350\n214.20,3.310\n215.18,3.283\n216.16,3.243\n217.14,3.212\n218.12,3.181\n219.10,3.158\n220.08,3.140\n221.06,3.127\n222.03,3.118\n223.01,3.114\n223.99,3.114\n224.97,3.123\n225.95,3.131\n226.93,3.136\n227.91,3.140\n228.89,3.140\n229.87,3.131\n230.85,3.123\n231.83,3.114\n232.81,3.105\n233.79,3.096\n234.77,3.078\n235.74,3.060\n236.72,3.047\n237.70,3.020\n238.68,2.993\n239.66,2.953\n240.64,2.872\n241.62,2.800\n242.60,2.700\n243.58,2.601\n244.56,2.525\n##END=\n'