b'##TITLE=Barbituric acid, 5-nitro-\n##JCAMP-DX=4.24\n##DATA TYPE=UV/VIS SPECTRUM\n##ORIGIN=INSTITUTE OF ENERGY PROBLEMS OF CHEMICAL PHYSICS, RAS\n##OWNER=INEP CP RAS, NIST OSRD\nCollection (C) 2007 copyright by the U.S. Secretary of Commerce\non behalf of the United States of America. All rights reserved.\n##CAS REGISTRY NO=28176-10-5\n##MOLFORM=C4H3N3O5\n##SOURCE REFERENCE=RAS UV No. 14564\n##$NIST SQUIB=1968MIH/NUT39\n##$NIST SOURCE=TYUGLMTE\n##SPECTROMETER/DATA SYSTEM=Unicam SP 800\n##XUNITS=Wavelength (nm)\n##YUNITS=Logarithm epsilon\n##XFACTOR=1.0\n##YFACTOR=1.0\n##FIRSTX=195.87\n##LASTX=350.34\n##FIRSTY=3.886\n##MAXX=350.34\n##MINX=195.87\n##MAXY=4.276\n##MINY=2.941\n##NPOINTS=383\n##$REF AUTHOR=Mihai, F.; Nutiu, R.\n##$REF JOURNAL=Revue Roumaine Chim.\n##$REF VOLUME=13\n##$REF PAGE=39\n##$REF DATE=1968\n##XYPOINTS=(XY..XY)\n195.87,3.886\n195.97,3.886\n196.08,3.887\n196.18,3.887\n196.28,3.887\n196.38,3.887\n196.49,3.887\n196.59,3.887\n196.69,3.888\n196.80,3.888\n196.90,3.888\n197.11,3.887\n197.52,3.889\n197.93,3.892\n198.34,3.894\n198.75,3.898\n199.17,3.904\n199.58,3.908\n199.99,3.913\n200.40,3.917\n200.81,3.923\n201.22,3.930\n201.64,3.937\n202.05,3.946\n202.46,3.955\n202.87,3.962\n203.28,3.969\n203.70,3.978\n204.11,3.990\n204.52,3.997\n204.93,4.004\n205.34,4.010\n205.76,4.022\n206.17,4.029\n206.58,4.040\n206.99,4.047\n207.40,4.056\n207.82,4.062\n208.23,4.072\n208.64,4.081\n209.05,4.092\n209.46,4.100\n209.87,4.110\n210.29,4.119\n210.70,4.127\n211.11,4.135\n211.52,4.146\n211.93,4.153\n212.35,4.164\n212.76,4.175\n213.17,4.185\n213.58,4.190\n213.99,4.199\n214.41,4.209\n214.82,4.218\n215.23,4.223\n215.64,4.230\n216.05,4.239\n216.47,4.247\n216.88,4.254\n217.29,4.257\n217.70,4.264\n218.11,4.269\n218.52,4.273\n218.94,4.275\n219.35,4.276\n219.76,4.275\n220.17,4.274\n220.58,4.271\n221.00,4.264\n221.41,4.257\n221.82,4.253\n222.23,4.239\n222.64,4.232\n223.06,4.216\n223.47,4.206\n223.88,4.192\n224.29,4.172\n224.70,4.150\n225.12,4.127\n225.53,4.103\n225.94,4.077\n226.35,4.050\n226.76,4.026\n227.17,3.995\n227.59,3.962\n228.00,3.930\n228.41,3.913\n228.82,3.889\n229.23,3.877\n229.65,3.868\n230.06,3.860\n230.47,3.850\n230.88,3.841\n231.29,3.834\n231.71,3.829\n232.12,3.824\n232.53,3.819\n232.94,3.813\n233.35,3.808\n233.77,3.804\n234.18,3.801\n234.59,3.798\n235.00,3.797\n235.41,3.795\n235.83,3.792\n236.24,3.788\n236.65,3.787\n237.06,3.784\n237.47,3.784\n237.88,3.784\n238.30,3.783\n238.71,3.782\n239.12,3.779\n239.53,3.776\n239.94,3.773\n240.36,3.770\n240.77,3.766\n241.18,3.762\n241.59,3.756\n242.00,3.747\n242.42,3.737\n242.83,3.728\n243.24,3.720\n243.65,3.708\n244.06,3.704\n244.48,3.691\n244.89,3.678\n245.30,3.671\n245.71,3.644\n246.12,3.638\n246.53,3.627\n246.95,3.608\n247.36,3.593\n247.77,3.570\n248.18,3.557\n248.59,3.532\n249.01,3.521\n249.42,3.496\n249.83,3.483\n250.24,3.462\n250.65,3.440\n251.07,3.429\n251.48,3.414\n251.89,3.395\n252.30,3.372\n252.71,3.355\n253.13,3.338\n253.54,3.323\n253.95,3.308\n254.36,3.284\n254.77,3.263\n255.18,3.245\n255.60,3.232\n256.01,3.218\n256.42,3.193\n256.83,3.178\n257.24,3.156\n257.66,3.145\n258.07,3.128\n258.48,3.116\n258.89,3.091\n259.30,3.072\n259.72,3.058\n260.13,3.044\n260.54,3.037\n260.95,3.030\n261.36,3.022\n261.78,3.007\n262.19,2.999\n262.60,2.992\n263.01,2.983\n263.42,2.975\n263.83,2.975\n264.25,2.967\n264.66,2.967\n265.07,2.967\n265.48,2.958\n265.89,2.958\n266.31,2.950\n266.72,2.950\n267.13,2.950\n267.54,2.941\n267.95,2.950\n268.37,2.941\n268.78,2.941\n269.19,2.941\n269.60,2.941\n270.01,2.941\n270.43,2.941\n270.84,2.950\n271.25,2.958\n271.66,2.967\n272.07,2.967\n272.49,2.975\n272.90,2.975\n273.31,2.983\n273.72,2.992\n274.13,3.007\n274.54,3.007\n274.96,2.999\n275.37,3.007\n275.78,3.022\n276.19,3.044\n276.60,3.044\n277.02,3.058\n277.43,3.072\n277.84,3.085\n278.25,3.104\n278.66,3.098\n279.08,3.110\n279.90,3.140\n280.31,3.145\n280.72,3.156\n281.14,3.167\n281.55,3.183\n281.96,3.183\n282.37,3.198\n282.78,3.213\n283.19,3.222\n283.61,3.241\n284.02,3.250\n284.43,3.263\n284.84,3.276\n285.25,3.292\n285.67,3.304\n286.08,3.312\n286.49,3.330\n286.90,3.341\n287.31,3.355\n287.73,3.366\n288.14,3.379\n288.55,3.392\n288.96,3.401\n289.37,3.417\n289.79,3.429\n290.20,3.443\n290.61,3.460\n291.02,3.470\n291.43,3.476\n291.84,3.494\n292.26,3.506\n292.67,3.525\n293.08,3.535\n293.49,3.546\n293.90,3.563\n294.32,3.578\n294.73,3.593\n295.14,3.599\n295.55,3.608\n295.96,3.620\n296.38,3.635\n296.79,3.652\n297.20,3.675\n297.61,3.675\n298.02,3.688\n298.44,3.693\n298.85,3.700\n299.26,3.713\n299.67,3.725\n300.08,3.738\n300.50,3.747\n300.91,3.754\n301.32,3.766\n301.73,3.776\n302.14,3.786\n302.55,3.792\n302.97,3.798\n303.38,3.807\n303.79,3.817\n304.20,3.826\n304.61,3.832\n305.03,3.838\n305.44,3.846\n305.85,3.855\n306.26,3.860\n306.67,3.868\n307.09,3.875\n307.50,3.882\n307.91,3.891\n308.32,3.897\n308.73,3.902\n309.15,3.907\n309.56,3.914\n309.97,3.920\n310.38,3.925\n310.79,3.929\n311.20,3.937\n311.62,3.941\n312.03,3.946\n312.44,3.953\n312.85,3.956\n313.26,3.959\n313.68,3.963\n314.09,3.966\n314.50,3.970\n314.91,3.973\n315.32,3.976\n315.74,3.980\n316.15,3.983\n316.56,3.985\n316.97,3.986\n317.38,3.988\n317.80,3.990\n318.21,3.991\n318.62,3.992\n319.03,3.993\n319.44,3.993\n319.85,3.993\n320.27,3.992\n320.68,3.991\n321.09,3.990\n321.50,3.990\n321.91,3.987\n322.33,3.986\n322.74,3.984\n323.15,3.981\n323.56,3.978\n323.97,3.976\n324.39,3.973\n324.80,3.970\n325.21,3.966\n325.62,3.962\n326.03,3.958\n326.45,3.955\n326.86,3.951\n327.27,3.946\n327.68,3.941\n328.09,3.936\n328.50,3.931\n328.92,3.926\n329.33,3.923\n329.74,3.917\n330.15,3.912\n330.56,3.905\n330.98,3.898\n331.39,3.893\n331.80,3.885\n332.21,3.884\n332.62,3.876\n333.04,3.872\n333.45,3.868\n333.86,3.861\n334.27,3.856\n334.68,3.851\n335.10,3.841\n335.51,3.839\n335.92,3.832\n336.33,3.824\n336.74,3.818\n337.16,3.812\n337.57,3.804\n337.98,3.798\n338.39,3.792\n338.80,3.784\n339.21,3.778\n339.63,3.771\n340.04,3.764\n340.45,3.759\n340.86,3.749\n341.27,3.741\n341.69,3.734\n342.10,3.726\n342.51,3.717\n342.92,3.710\n343.33,3.702\n343.75,3.689\n344.16,3.680\n344.57,3.678\n344.98,3.659\n345.39,3.649\n345.81,3.644\n346.22,3.635\n346.63,3.624\n347.04,3.616\n347.45,3.608\n347.86,3.597\n348.28,3.584\n348.69,3.574\n349.10,3.568\n349.51,3.557\n349.92,3.544\n350.34,3.532\n##END=\n'