b'##TITLE=Cyclopentane\n##JCAMP-DX=4.24\n##DATA TYPE=UV/VIS SPECTRUM\n##ORIGIN=INSTITUTE OF ENERGY PROBLEMS OF CHEMICAL PHYSICS, RAS\n##OWNER=INEP CP RAS, NIST OSRD\nCollection (C) 2007 copyright by the U.S. Secretary of Commerce\non behalf of the United States of America. All rights reserved.\n##CAS REGISTRY NO=287-92-3\n##MOLFORM=C5H10\n##MP=-93.8\n##BP=49.3\n##SOURCE REFERENCE=RAS UV No. 4885\n##$NIST SQUIB=1951PIC/MUN4862-4865\n##$NIST SOURCE=TSGMTE\n##SPECTROMETER/DATA SYSTEM=Hilger fluorite prism spectrograph\n##XUNITS=Wavelength (nm)\n##YUNITS=Logarithm epsilon\n##XFACTOR=1.000000\n##YFACTOR=1.000000\n##FIRSTX=170.4259\n##LASTX=154.0752\n##FIRSTY=1.53558\n##MAXX=170.426\n##MINX=154.075\n##MAXY=3.39345\n##MINY=1.53558\n##NPOINTS=113\n##$REF AUTHOR=Pickett, L.W.; Muntz, M.; McPherson, E.M.\n##$REF TITLE=Vacuum ultraviolet absorption spectra of cyclic compounds. I. Cyclohexane, cyclohexene, cyclopentane, Cyclopentene and benzene\n##$REF JOURNAL=J. Am. Chem. Soc.\n##$REF VOLUME=73\n##$REF PAGE=4862-4865\n##$REF DATE=1951\n##XYPOINTS=(XY..XY)\n170.4259,1.535579\n170.3943,1.567145\n170.3474,1.620834\n170.3474,1.620834\n170.2450,1.651752\n170.1427,1.682677\n170.0402,1.713621\n169.9375,1.744591\n169.8343,1.775596\n169.7307,1.806645\n169.7307,1.806645\n169.5979,1.838976\n169.4648,1.871340\n169.3315,1.903732\n169.1981,1.936146\n169.0646,1.968577\n168.9312,2.001019\n168.7980,2.033466\n168.7980,2.033466\n168.7738,2.035055\n168.7476,2.036714\n168.7204,2.038513\n168.7204,2.038513\n168.6277,2.061636\n168.5332,2.084899\n168.4378,2.108231\n168.4378,2.108231\n168.1406,2.159786\n167.8999,2.201620\n167.7052,2.235405\n167.5465,2.262816\n167.4135,2.285524\n167.2964,2.305205\n167.1852,2.323530\n167.0701,2.342172\n166.9412,2.362806\n166.7889,2.387105\n166.7889,2.387105\n166.6372,2.408447\n166.5035,2.426884\n166.3728,2.444655\n166.2303,2.464000\n166.0613,2.487161\n165.8512,2.516378\n165.5857,2.553890\n165.2507,2.601938\n165.2507,2.601938\n165.1563,2.612914\n165.0298,2.629175\n164.8380,2.654112\n164.5482,2.691117\n164.1285,2.743584\n164.1285,2.743584\n163.5960,2.800954\n163.2706,2.835345\n163.0800,2.855244\n162.9533,2.869140\n162.9533,2.869140\n162.6036,2.898981\n162.2986,2.923844\n161.7780,2.965042\n161.7780,2.965042\n161.3782,2.991822\n161.0877,3.010820\n160.9097,3.023719\n160.9097,3.023719\n160.7160,3.035683\n160.4200,3.056551\n160.1369,3.076086\n160.1369,3.076086\n159.7921,3.104490\n159.4478,3.132964\n159.1032,3.161578\n159.1032,3.161578\n159.0138,3.166310\n158.9236,3.171042\n158.8317,3.175774\n158.8317,3.175774\n158.7941,3.176101\n158.7547,3.176499\n158.7145,3.177036\n158.7145,3.177036\n158.6608,3.180518\n158.6053,3.184070\n158.5490,3.187762\n158.5490,3.187762\n158.3533,3.192529\n158.1546,3.199399\n157.8826,3.208583\n157.8826,3.208583\n157.7456,3.211515\n157.6071,3.214588\n157.4680,3.217731\n157.4680,3.217731\n157.2983,3.224695\n156.9832,3.235374\n156.4683,3.254326\n156.4683,3.254326\n155.8628,3.284541\n155.5840,3.298982\n155.4464,3.305431\n155.4464,3.305431\n155.3003,3.315153\n155.0447,3.331253\n154.7097,3.354014\n154.7097,3.354014\n154.6106,3.358722\n154.4767,3.368128\n154.3574,3.378935\n154.3574,3.378935\n154.2528,3.386413\n154.1796,3.390176\n154.0752,3.393447\n##END=\n'