b"##TITLE=Thietane\n##JCAMP-DX=4.24\n##DATA TYPE=UV/VIS SPECTRUM\n##ORIGIN=INSTITUTE OF ENERGY PROBLEMS OF CHEMICAL PHYSICS, RAS\n##OWNER=INEP CP RAS, NIST OSRD\nCollection (C) 2007 copyright by the U.S. Secretary of Commerce\non behalf of the United States of America. All rights reserved.\n##CAS REGISTRY NO=287-27-4\n##MOLFORM=C3H6S\n##BP=95\n##SOURCE REFERENCE=RAS UV No. 20131\n##$NIST SQUIB=1969BOL/116\n##$NIST SOURCE=TYUGLMTE\n##SPECTROMETER/DATA SYSTEM=unknown\n##XUNITS=Wavelength (nm)\n##YUNITS=Logarithm epsilon\n##XFACTOR=1.0\n##YFACTOR=1.0\n##FIRSTX=212.02\n##LASTX=298.82\n##FIRSTY=2.93\n##MAXX=298.82\n##MINX=212.02\n##MAXY=2.975\n##MINY=1.279\n##NPOINTS=135\n##$REF AUTHOR=Bol'shakov, G.F.; et al.\n##$REF JOURNAL=Ultraviolet spectra of heteroorganic compounds\n##$REF PAGE=116\n##$REF DATE=1969\n##XYPOINTS=(XY..XY)\n212.02,2.930\n212.60,2.943\n213.28,2.953\n213.95,2.962\n214.71,2.966\n215.38,2.972\n216.13,2.975\n216.89,2.972\n217.65,2.970\n218.40,2.964\n219.16,2.958\n219.75,2.947\n220.24,2.938\n220.84,2.922\n221.23,2.904\n221.57,2.884\n221.91,2.866\n222.18,2.846\n222.47,2.818\n222.77,2.788\n223.19,2.750\n223.61,2.710\n224.03,2.670\n224.45,2.628\n224.87,2.585\n225.29,2.528\n225.71,2.469\n226.13,2.403\n226.55,2.327\n226.97,2.263\n227.39,2.192\n227.81,2.128\n228.23,2.048\n228.65,1.995\n229.07,1.923\n229.50,1.859\n229.92,1.770\n230.34,1.707\n230.76,1.631\n231.18,1.559\n231.60,1.480\n232.02,1.428\n232.44,1.370\n232.86,1.347\n233.28,1.326\n233.66,1.314\n234.03,1.304\n234.54,1.294\n235.21,1.286\n235.86,1.281\n236.72,1.279\n237.58,1.281\n238.22,1.284\n238.91,1.288\n239.51,1.293\n240.27,1.299\n241.01,1.305\n241.76,1.309\n242.52,1.313\n243.33,1.318\n244.03,1.322\n244.79,1.326\n245.55,1.330\n246.34,1.335\n246.98,1.338\n247.73,1.341\n248.49,1.345\n249.24,1.349\n250.00,1.353\n250.69,1.358\n251.43,1.362\n252.20,1.366\n252.86,1.370\n253.54,1.375\n254.28,1.379\n255.04,1.383\n255.74,1.387\n256.47,1.392\n257.19,1.396\n257.90,1.400\n258.65,1.404\n259.41,1.408\n260.17,1.413\n260.92,1.417\n261.65,1.422\n262.41,1.427\n263.19,1.432\n263.95,1.436\n264.66,1.440\n265.38,1.444\n266.11,1.449\n266.81,1.453\n267.56,1.457\n268.32,1.461\n269.07,1.466\n269.83,1.470\n270.59,1.474\n271.34,1.478\n271.97,1.482\n272.77,1.485\n273.53,1.487\n274.23,1.488\n275.04,1.489\n275.80,1.489\n276.55,1.489\n277.31,1.489\n278.07,1.489\n278.80,1.488\n279.60,1.487\n280.33,1.485\n281.05,1.482\n281.75,1.480\n282.61,1.477\n283.36,1.473\n284.12,1.470\n284.87,1.468\n285.57,1.464\n286.38,1.459\n287.14,1.455\n287.90,1.451\n288.65,1.447\n289.44,1.441\n290.17,1.436\n290.89,1.431\n291.68,1.425\n292.35,1.419\n293.11,1.413\n293.86,1.406\n294.62,1.400\n295.29,1.394\n295.88,1.387\n296.53,1.381\n297.28,1.372\n298.15,1.364\n298.82,1.358\n##END=\n"