b'##TITLE=Isoxazole\n##JCAMP-DX=4.24\n##DATA TYPE=UV/VIS SPECTRUM\n##ORIGIN=INSTITUTE OF ENERGY PROBLEMS OF CHEMICAL PHYSICS, RAS\n##OWNER=INEP CP RAS, NIST OSRD\nCollection (C) 2007 copyright by the U.S. Secretary of Commerce\non behalf of the United States of America. All rights reserved.\n##CAS REGISTRY NO=288-14-2\n##MOLFORM=C3H3NO\n##SOURCE REFERENCE=RAS UV No. 19849\n##$NIST SQUIB=1967JOH/SHEg3/2\n##$NIST SOURCE=TYUGLMTE\n##SPECTROMETER/DATA SYSTEM=Unicam SP 500\n##XUNITS=Wavelength (nm)\n##YUNITS=Logarithm epsilon\n##XFACTOR=1.0\n##YFACTOR=1.0\n##FIRSTX=192.06\n##LASTX=248.48\n##FIRSTY=4.289\n##MAXX=248.48\n##MINX=192.06\n##MAXY=4.535\n##MINY=1.472\n##NPOINTS=137\n##$REF AUTHOR=Johnson, E.A.; Sheridan, J.\n##$REF JOURNAL=UV atlas of organic compounds\n##$REF VOLUME=3\n##$REF PAGE=G3/2\n##$REF DATE=1967\n##XYPOINTS=(XY..XY)\n192.06,4.289\n192.28,4.286\n192.53,4.281\n192.71,4.276\n193.04,4.270\n193.36,4.270\n193.69,4.268\n194.02,4.268\n194.35,4.266\n194.68,4.266\n195.01,4.266\n195.35,4.266\n195.68,4.268\n196.02,4.268\n196.36,4.268\n196.69,4.270\n197.03,4.274\n197.37,4.279\n197.72,4.281\n198.06,4.287\n198.40,4.291\n198.75,4.300\n199.09,4.302\n199.44,4.311\n199.79,4.319\n200.14,4.326\n200.49,4.334\n200.84,4.345\n201.20,4.355\n201.55,4.364\n201.91,4.372\n202.27,4.381\n202.63,4.390\n202.99,4.398\n203.35,4.407\n203.71,4.415\n204.07,4.424\n204.44,4.430\n204.81,4.439\n205.17,4.449\n205.54,4.454\n205.91,4.462\n206.29,4.469\n206.66,4.473\n207.03,4.481\n207.41,4.490\n207.79,4.494\n208.17,4.498\n208.55,4.503\n208.93,4.509\n209.31,4.513\n209.70,4.515\n210.08,4.520\n210.47,4.524\n210.86,4.526\n211.25,4.528\n211.64,4.530\n212.03,4.535\n212.43,4.535\n212.82,4.535\n213.22,4.535\n213.62,4.535\n214.02,4.528\n214.42,4.528\n214.82,4.526\n215.23,4.522\n215.64,4.515\n216.04,4.511\n216.45,4.505\n216.86,4.496\n217.28,4.492\n217.69,4.483\n218.11,4.473\n218.52,4.460\n218.94,4.449\n219.36,4.436\n219.79,4.422\n220.21,4.407\n220.63,4.394\n221.06,4.377\n221.49,4.362\n221.92,4.343\n222.35,4.328\n222.79,4.306\n223.22,4.289\n223.66,4.261\n224.10,4.236\n224.54,4.212\n224.98,4.189\n225.46,4.162\n225.92,4.136\n226.38,4.111\n226.79,4.090\n227.19,4.067\n227.60,4.042\n228.11,4.007\n228.57,3.971\n229.04,3.931\n229.50,3.888\n229.97,3.845\n230.43,3.803\n230.89,3.753\n231.36,3.707\n231.83,3.660\n232.30,3.606\n232.80,3.550\n233.25,3.502\n233.73,3.442\n234.21,3.376\n234.69,3.318\n235.17,3.256\n235.66,3.196\n236.15,3.132\n236.64,3.073\n237.13,3.002\n237.62,2.930\n238.12,2.857\n238.61,2.778\n239.11,2.710\n239.62,2.641\n240.12,2.569\n240.63,2.498\n241.13,2.409\n241.64,2.336\n242.16,2.244\n242.67,2.150\n243.19,2.080\n243.71,2.007\n244.23,1.939\n244.75,1.877\n245.28,1.820\n245.80,1.751\n246.33,1.687\n246.87,1.632\n247.40,1.578\n247.94,1.525\n248.48,1.472\n##END=\n'