b'##TITLE=Selenophene\n##JCAMP-DX=4.24\n##DATA TYPE=UV/VIS SPECTRUM\n##ORIGIN=INSTITUTE OF ENERGY PROBLEMS OF CHEMICAL PHYSICS, RAS\n##OWNER=INEP CP RAS, NIST OSRD\nCollection (C) 2007 copyright by the U.S. Secretary of Commerce\non behalf of the United States of America. All rights reserved.\n##CAS REGISTRY NO=288-05-1\n##MOLFORM=C4H4Se\n##BP=110/ 752 mm\n##SOURCE REFERENCE=RAS UV No. 12911\n##$NIST SQUIB=1959CHU25\n##$NIST SOURCE=TYUGLMTE\n##SPECTROMETER/DATA SYSTEM=Spectrophotometer SF-4\n##XUNITS=Wavelength (nm)\n##YUNITS=Logarithm epsilon\n##XFACTOR=1.0\n##YFACTOR=1.0\n##FIRSTX=227.77\n##LASTX=279.89\n##FIRSTY=3.731\n##MAXX=279.89\n##MINX=227.77\n##MAXY=3.812\n##MINY=3.281\n##NPOINTS=55\n##$REF AUTHOR=Churnaevskii, N.A.\n##$REF JOURNAL=Optika i Spektrokopya (English translation)\n##$REF VOLUME=6\n##$REF PAGE=25\n##$REF DATE=1959\n##XYPOINTS=(XY..XY)\n227.77,3.731\n228.69,3.746\n229.73,3.754\n230.76,3.766\n231.80,3.773\n232.84,3.777\n233.88,3.788\n234.92,3.788\n235.95,3.784\n236.99,3.780\n238.03,3.780\n239.07,3.780\n240.10,3.777\n241.14,3.777\n242.18,3.773\n243.22,3.777\n244.26,3.777\n245.29,3.769\n246.33,3.766\n247.37,3.769\n248.41,3.769\n249.45,3.769\n250.48,3.766\n251.52,3.766\n252.56,3.773\n253.60,3.784\n254.63,3.788\n255.67,3.795\n256.71,3.805\n257.75,3.808\n258.79,3.812\n259.82,3.808\n260.86,3.812\n261.90,3.808\n262.82,3.798\n263.63,3.780\n264.44,3.762\n265.24,3.743\n266.05,3.722\n266.86,3.701\n267.55,3.674\n268.24,3.641\n268.93,3.610\n269.51,3.564\n270.32,3.534\n271.01,3.486\n271.82,3.442\n272.74,3.400\n273.65,3.370\n274.70,3.345\n275.75,3.328\n276.77,3.314\n277.81,3.303\n278.85,3.292\n279.89,3.281\n##END=\n'