b'##TITLE=1H-Pyrazole\n##JCAMP-DX=4.24\n##DATA TYPE=UV/VIS SPECTRUM\n##ORIGIN=INSTITUTE OF ENERGY PROBLEMS OF CHEMICAL PHYSICS, RAS\n##OWNER=INEP CP RAS, NIST OSRD\nCollection (C) 2007 copyright by the U.S. Secretary of Commerce\non behalf of the United States of America. All rights reserved.\n##CAS REGISTRY NO=288-13-1\n##MOLFORM=C3H4N2\n##MP=70\n##SOURCE REFERENCE=RAS UV No. 19851\n##$NIST SQUIB=1967KNO/ELGg1/6\n##$NIST SOURCE=TYUGLMTE\n##SPECTROMETER/DATA SYSTEM=Cary 11\n##XUNITS=Wavelength (nm)\n##YUNITS=Logarithm epsilon\n##XFACTOR=1.0\n##YFACTOR=1.0\n##FIRSTX=203.66\n##LASTX=229.48\n##FIRSTY=3.452\n##MAXX=229.48\n##MINX=203.66\n##MAXY=3.552\n##MINY=1.839\n##NPOINTS=88\n##$REF AUTHOR=Knowles, A.; Elguero, J.\n##$REF JOURNAL=UV atlas of organic compounds\n##$REF VOLUME=3\n##$REF PAGE=G1/6\n##$REF DATE=1967\n##XYPOINTS=(XY..XY)\n203.66,3.452\n203.74,3.454\n203.92,3.456\n204.10,3.460\n204.36,3.464\n204.55,3.468\n204.72,3.471\n205.01,3.477\n205.28,3.482\n205.56,3.488\n205.83,3.492\n206.11,3.498\n206.37,3.504\n206.66,3.509\n206.94,3.514\n207.22,3.520\n207.49,3.524\n207.77,3.529\n208.05,3.533\n208.34,3.537\n208.62,3.541\n208.91,3.543\n209.19,3.546\n209.47,3.548\n209.76,3.550\n210.04,3.551\n210.33,3.552\n210.61,3.551\n210.91,3.550\n211.20,3.550\n211.49,3.548\n211.78,3.548\n212.07,3.543\n212.37,3.541\n212.66,3.537\n212.96,3.534\n213.25,3.531\n213.55,3.524\n213.84,3.520\n214.14,3.511\n214.44,3.507\n214.74,3.501\n215.04,3.492\n215.34,3.486\n215.64,3.477\n215.95,3.469\n216.25,3.460\n216.55,3.450\n216.86,3.439\n217.17,3.426\n217.47,3.413\n217.77,3.402\n218.14,3.388\n218.44,3.374\n218.84,3.357\n219.13,3.346\n219.42,3.335\n219.61,3.327\n219.90,3.317\n220.28,3.300\n220.59,3.281\n220.91,3.253\n221.23,3.232\n221.55,3.211\n221.87,3.181\n222.19,3.155\n222.51,3.125\n222.83,3.089\n223.15,3.057\n223.48,3.016\n223.80,2.982\n224.13,2.946\n224.46,2.897\n224.78,2.861\n225.11,2.812\n225.44,2.760\n225.77,2.701\n226.11,2.634\n226.44,2.551\n226.77,2.485\n227.11,2.410\n227.44,2.327\n227.78,2.238\n228.12,2.122\n228.46,2.043\n228.73,1.980\n229.14,1.890\n229.48,1.839\n##END=\n'