b'##TITLE=1H-Imidazole\n##JCAMP-DX=4.24\n##DATA TYPE=UV/VIS SPECTRUM\n##ORIGIN=INSTITUTE OF ENERGY PROBLEMS OF CHEMICAL PHYSICS, RAS\n##OWNER=INEP CP RAS, NIST OSRD\nCollection (C) 2007 copyright by the U.S. Secretary of Commerce\non behalf of the United States of America. All rights reserved.\n##CAS REGISTRY NO=288-32-4\n##MOLFORM=C3H4N2\n##MP=90.7-91.3\n##SOURCE REFERENCE=RAS UV No. 19853\n##$NIST SQUIB=1967JOHg1/7\n##$NIST SOURCE=TYUGLMTE\n##SPECTROMETER/DATA SYSTEM=Unicam SP 500\n##XUNITS=Wavelength (nm)\n##YUNITS=Logarithm epsilon\n##XFACTOR=1.0\n##YFACTOR=1.0\n##FIRSTX=197.13\n##LASTX=238.02\n##FIRSTY=3.731\n##MAXX=238.02\n##MINX=197.13\n##MAXY=3.763\n##MINY=1.083\n##NPOINTS=92\n##$REF AUTHOR=Johnson, E.A.\n##$REF JOURNAL=UV atlas of organic compounds\n##$REF VOLUME=3\n##$REF PAGE=G1/7\n##$REF DATE=1967\n##XYPOINTS=(XY..XY)\n197.13,3.731\n197.89,3.732\n198.66,3.732\n199.44,3.734\n200.22,3.739\n200.92,3.744\n201.72,3.748\n202.52,3.752\n203.33,3.756\n204.14,3.758\n204.96,3.760\n205.79,3.761\n206.62,3.763\n207.46,3.761\n208.31,3.760\n209.07,3.755\n209.93,3.750\n210.70,3.742\n211.48,3.734\n212.06,3.724\n212.65,3.715\n213.35,3.705\n213.84,3.694\n214.34,3.681\n214.84,3.670\n216.16,3.630\n216.26,3.630\n216.46,3.623\n216.77,3.609\n217.08,3.599\n217.39,3.588\n217.70,3.575\n218.01,3.562\n218.32,3.551\n218.63,3.537\n218.94,3.522\n219.26,3.511\n219.57,3.495\n219.89,3.482\n220.20,3.465\n220.52,3.445\n220.84,3.426\n221.16,3.415\n221.48,3.396\n221.80,3.373\n222.12,3.352\n222.45,3.330\n222.77,3.311\n223.09,3.279\n223.42,3.253\n223.77,3.224\n224.07,3.200\n224.40,3.166\n224.72,3.126\n225.00,3.089\n225.39,3.043\n225.71,3.000\n226.06,2.958\n226.40,2.910\n226.73,2.875\n227.07,2.819\n227.41,2.775\n227.74,2.721\n228.08,2.670\n228.45,2.595\n228.77,2.540\n229.11,2.474\n229.45,2.424\n229.81,2.363\n230.14,2.306\n230.50,2.250\n230.84,2.193\n231.19,2.136\n231.54,2.081\n231.89,2.028\n232.24,1.967\n232.59,1.921\n232.95,1.865\n233.30,1.815\n233.66,1.759\n234.01,1.708\n234.37,1.642\n234.73,1.600\n235.09,1.533\n235.46,1.488\n235.82,1.416\n236.18,1.379\n236.55,1.309\n236.91,1.261\n237.28,1.188\n237.65,1.142\n238.02,1.083\n##END=\n'