b'##TITLE=Isothiazole\n##JCAMP-DX=4.24\n##DATA TYPE=UV/VIS SPECTRUM\n##ORIGIN=INSTITUTE OF ENERGY PROBLEMS OF CHEMICAL PHYSICS, RAS\n##OWNER=INEP CP RAS, NIST OSRD\nCollection (C) 2007 copyright by the U.S. Secretary of Commerce\non behalf of the United States of America. All rights reserved.\n##CAS REGISTRY NO=288-16-4\n##MOLFORM=C3H3NS\n##BP=114-116\n##SOURCE REFERENCE=RAS UV No. 19855\n##$NIST SQUIB=1967JOH/SLAg2/4\n##$NIST SOURCE=TYUGLMTE\n##SPECTROMETER/DATA SYSTEM=Unicam SP 500\n##XUNITS=Wavelength (nm)\n##YUNITS=Logarithm epsilon\n##XFACTOR=1.0\n##YFACTOR=1.0\n##FIRSTX=184.57\n##LASTX=272.9\n##FIRSTY=3.399\n##MAXX=272.9\n##MINX=184.57\n##MAXY=3.851\n##MINY=1.088\n##NPOINTS=165\n##$REF AUTHOR=Johnson, E.A.; Slack, R.\n##$REF JOURNAL=UV atlas of organic compounds\n##$REF VOLUME=3\n##$REF PAGE=G2/4\n##$REF DATE=1967\n##XYPOINTS=(XY..XY)\n184.57,3.399\n184.94,3.388\n185.45,3.380\n185.98,3.370\n186.57,3.362\n187.18,3.356\n187.78,3.349\n188.47,3.348\n189.16,3.348\n189.78,3.354\n190.41,3.362\n190.95,3.370\n191.43,3.380\n191.97,3.390\n192.38,3.399\n192.81,3.409\n193.26,3.421\n193.68,3.432\n194.15,3.445\n194.56,3.457\n194.97,3.468\n195.43,3.481\n195.88,3.490\n196.37,3.500\n196.87,3.509\n197.38,3.520\n197.88,3.532\n198.48,3.540\n199.07,3.549\n199.67,3.557\n200.19,3.567\n200.80,3.575\n201.41,3.583\n202.02,3.591\n202.73,3.599\n203.44,3.605\n204.25,3.607\n205.06,3.608\n205.88,3.607\n206.71,3.607\n207.54,3.604\n208.28,3.597\n209.04,3.591\n209.79,3.584\n210.46,3.576\n211.13,3.567\n211.81,3.557\n212.29,3.546\n212.88,3.535\n213.46,3.524\n213.96,3.511\n214.45,3.500\n214.95,3.487\n215.45,3.476\n215.95,3.464\n216.45,3.452\n216.96,3.439\n217.47,3.426\n217.98,3.415\n218.49,3.404\n219.11,3.393\n219.63,3.381\n220.26,3.370\n220.99,3.362\n221.73,3.354\n222.69,3.351\n223.66,3.354\n224.42,3.362\n225.07,3.373\n225.51,3.386\n225.95,3.399\n226.50,3.412\n226.83,3.426\n227.17,3.439\n227.58,3.455\n227.89,3.468\n228.17,3.480\n228.51,3.495\n228.93,3.510\n229.20,3.520\n229.64,3.535\n229.98,3.549\n230.33,3.564\n230.67,3.576\n231.11,3.591\n231.48,3.604\n231.82,3.618\n232.17,3.632\n232.61,3.647\n232.99,3.660\n233.46,3.672\n233.87,3.685\n234.28,3.697\n234.87,3.713\n235.23,3.724\n235.83,3.738\n236.43,3.751\n236.92,3.763\n237.52,3.775\n238.01,3.787\n238.63,3.799\n239.36,3.810\n240.11,3.821\n240.86,3.832\n241.74,3.840\n242.75,3.848\n243.90,3.850\n245.06,3.851\n246.23,3.848\n247.28,3.840\n248.07,3.829\n248.87,3.818\n249.46,3.808\n250.03,3.797\n250.54,3.785\n251.04,3.771\n251.57,3.754\n251.98,3.743\n252.40,3.728\n252.81,3.712\n253.22,3.696\n253.64,3.672\n254.06,3.653\n254.47,3.631\n254.89,3.607\n255.32,3.575\n255.74,3.544\n256.16,3.509\n256.59,3.472\n257.01,3.442\n257.44,3.396\n257.89,3.352\n258.30,3.306\n258.68,3.253\n259.16,3.188\n259.60,3.127\n260.01,3.066\n260.48,3.003\n260.92,2.939\n261.36,2.863\n261.80,2.793\n262.25,2.718\n262.69,2.670\n263.14,2.584\n263.59,2.525\n264.04,2.438\n264.49,2.386\n264.95,2.307\n265.40,2.254\n265.86,2.176\n266.32,2.103\n266.78,2.039\n267.24,1.962\n267.70,1.904\n268.16,1.820\n268.63,1.759\n269.10,1.676\n269.57,1.625\n270.04,1.543\n270.51,1.481\n270.99,1.396\n271.46,1.330\n271.94,1.259\n272.42,1.180\n272.90,1.088\n##END=\n'