b'##TITLE=Oxazole\n##JCAMP-DX=4.24\n##DATA TYPE=UV/VIS SPECTRUM\n##ORIGIN=INSTITUTE OF ENERGY PROBLEMS OF CHEMICAL PHYSICS, RAS\n##OWNER=INEP CP RAS, NIST OSRD\nCollection (C) 2007 copyright by the U.S. Secretary of Commerce\non behalf of the United States of America. All rights reserved.\n##CAS REGISTRY NO=288-42-6\n##MOLFORM=C3H3NO\n##BP=69.5\n##SOURCE REFERENCE=RAS UV No. 9072\n##$NIST SQUIB=1967JOH/SHEg3/1C\n##$NIST SOURCE=TSGMTE\n##SPECTROMETER/DATA SYSTEM=Unicam SP 500 or Hilger Ultrascan\n##XUNITS=Wavelength (nm)\n##YUNITS=Logarithm epsilon\n##XFACTOR=1.000000\n##YFACTOR=1.000000\n##FIRSTX=238.2830\n##LASTX=192.4924\n##FIRSTY=1.12098\n##MAXX=238.283\n##MINX=192.492\n##MAXY=4.63955\n##MINY=1.12098\n##NPOINTS=666\n##$REF AUTHOR=Johnson, E.A.; Sheridan, J.\n##$REF TITLE=Oxazole\n##$REF BOOK TITLE=UV Atlas of Organic Compounds - Vol. 3\n##$REF PAGE=G3/1\n##$REF DATE=1967\n##$REF PUBLISHER=Plenum Press\n##$REF LOCATION=New York\n##XYPOINTS=(XY..XY)\n238.2830,1.120978\n238.1693,1.136096\n238.1672,1.120982\n238.0424,1.159666\n238.0394,1.138151\n237.9289,1.174528\n237.9271,1.161721\n237.8164,1.195792\n237.8137,1.176580\n237.6892,1.215008\n237.6865,1.195797\n237.5761,1.230127\n237.5739,1.215013\n237.4636,1.249343\n237.4612,1.232180\n237.3371,1.270607\n237.3344,1.251397\n237.2249,1.289823\n237.2222,1.270611\n237.1125,1.306989\n237.1100,1.289827\n236.9858,1.324157\n236.9837,1.309044\n236.8736,1.341324\n236.8712,1.324161\n236.7621,1.362588\n236.7594,1.343377\n236.6358,1.379755\n236.6337,1.364643\n236.5256,1.409473\n236.5218,1.381810\n236.4148,1.433043\n236.4118,1.411783\n236.3099,1.499390\n236.3082,1.486582\n236.3046,1.460968\n236.3010,1.435354\n236.1835,1.512203\n236.1820,1.501444\n236.1796,1.484283\n236.1767,1.463024\n236.0703,1.516562\n236.0700,1.514257\n235.9580,1.527069\n235.9569,1.518617\n235.8332,1.548591\n235.8302,1.527074\n235.7229,1.571904\n235.7200,1.550645\n235.6122,1.591120\n235.6096,1.571910\n235.4884,1.616996\n235.4848,1.591126\n235.3781,1.638262\n235.3755,1.619051\n235.2680,1.659526\n235.2654,1.640315\n235.1445,1.685402\n235.1413,1.661837\n235.0343,1.704618\n235.0317,1.685408\n234.9254,1.732287\n234.9219,1.706673\n234.8016,1.753552\n234.7990,1.734341\n234.6923,1.777122\n234.6894,1.755863\n234.5835,1.802742\n234.5800,1.777128\n234.4604,1.826313\n234.4575,1.805053\n234.3511,1.847578\n234.3482,1.826318\n234.2426,1.873453\n234.2390,1.847583\n234.1201,1.899073\n234.1169,1.875508\n234.0120,1.926742\n234.0085,1.901127\n233.9044,1.956715\n233.9006,1.928796\n233.7814,1.975932\n233.7790,1.958770\n233.6736,2.003600\n233.6701,1.977986\n233.5642,2.018718\n233.5625,2.005911\n233.4428,2.046387\n233.4393,2.020773\n233.3345,2.067908\n233.3318,2.048441\n233.2263,2.089173\n233.2237,2.069962\n233.1046,2.112744\n233.1017,2.091228\n232.9972,2.138363\n232.9940,2.114798\n232.8893,2.159628\n232.8867,2.140417\n232.7685,2.187553\n232.7651,2.161939\n232.6611,2.210867\n232.6582,2.189607\n232.5535,2.232388\n232.5510,2.213178\n232.4469,2.260057\n232.4435,2.234443\n232.3258,2.281579\n232.3232,2.262368\n232.2191,2.307198\n232.2159,2.283633\n232.1125,2.332817\n232.1093,2.309252\n231.9914,2.352034\n231.9891,2.334872\n231.8855,2.382007\n231.8818,2.354088\n231.7787,2.403272\n231.7761,2.384062\n231.6593,2.433247\n231.6556,2.405327\n231.5527,2.454512\n231.5501,2.435301\n231.4467,2.480131\n231.4436,2.456822\n231.3271,2.505751\n231.3240,2.482442\n231.2211,2.529321\n231.2182,2.508061\n231.1148,2.550842\n231.1123,2.531632\n230.9945,2.567753\n230.9925,2.552897\n230.8893,2.595678\n230.8859,2.570064\n230.7830,2.614894\n230.7808,2.597732\n230.6636,2.636159\n230.6611,2.616949\n230.5579,2.657680\n230.5553,2.638470\n230.4531,2.685349\n230.4497,2.659735\n230.3340,2.706871\n230.3314,2.687404\n230.2291,2.732490\n230.2260,2.708925\n230.1240,2.755804\n230.1212,2.734544\n230.0053,2.777326\n230.0028,2.758115\n229.9010,2.804994\n229.8976,2.779380\n229.7962,2.828564\n229.7934,2.807305\n229.6778,2.849830\n229.6753,2.830619\n229.5738,2.877755\n229.5704,2.852140\n229.4699,2.905423\n229.4665,2.879809\n229.3521,2.928994\n229.3493,2.907734\n229.2475,2.950259\n229.2450,2.931048\n229.1431,2.971780\n229.1406,2.952569\n229.0262,2.999449\n229.0226,2.971786\n228.9217,3.018665\n228.9194,3.001759\n228.8172,3.037881\n228.8150,3.020975\n228.7134,3.061451\n228.7107,3.040191\n228.5959,3.080667\n228.5937,3.063762\n228.4920,3.102188\n228.4895,3.082978\n228.3883,3.123453\n228.3858,3.104242\n228.2710,3.142670\n228.2688,3.125508\n228.1675,3.164191\n228.1649,3.144724\n228.0640,3.185456\n228.0615,3.166245\n227.9471,3.204672\n227.9448,3.187510\n227.8438,3.225937\n227.8413,3.206726\n227.7406,3.247458\n227.7381,3.228247\n227.6246,3.271029\n227.6218,3.249513\n227.5211,3.287939\n227.5191,3.273083\n227.4179,3.307155\n227.4157,3.290250\n227.3014,3.324322\n227.2995,3.309466\n227.1987,3.345843\n227.1962,3.326377\n227.0958,3.365059\n227.0936,3.347898\n226.9794,3.379921\n226.9777,3.367114\n226.8764,3.397088\n226.8745,3.381976\n226.7741,3.418353\n226.7716,3.399142\n226.6583,3.435520\n226.6563,3.420408\n226.5559,3.454736\n226.5537,3.437574\n226.4536,3.473952\n226.4514,3.456790\n226.3381,3.491119\n226.3361,3.476007\n226.2349,3.501626\n226.2338,3.493173\n226.1329,3.521098\n226.1307,3.503936\n226.0176,3.538009\n226.0158,3.523153\n225.9150,3.550821\n225.9137,3.540319\n225.8128,3.565939\n225.8112,3.553132\n225.6976,3.580801\n225.6960,3.567994\n225.5953,3.593613\n225.5939,3.582855\n225.4928,3.604376\n225.4917,3.595667\n225.3785,3.623593\n225.3763,3.606431\n225.2762,3.634356\n225.2751,3.625647\n225.1743,3.647168\n225.1729,3.636410\n225.0724,3.659980\n225.0711,3.649222\n224.9580,3.674842\n224.9564,3.662035\n224.8564,3.687654\n224.8550,3.676896\n224.7545,3.698417\n224.7534,3.689709\n224.6399,3.709181\n224.6388,3.700472\n224.5391,3.726092\n224.5372,3.711235\n224.4381,3.741209\n224.4365,3.728402\n224.3243,3.756071\n224.3227,3.743264\n224.2230,3.766834\n224.2219,3.758125\n224.1220,3.779646\n224.1206,3.768889\n224.0080,3.790154\n224.0069,3.781701\n223.9075,3.805272\n223.9059,3.792464\n223.8067,3.818084\n223.8054,3.807326\n223.6934,3.830897\n223.6920,3.820139\n223.5926,3.841660\n223.5915,3.832951\n223.4922,3.854472\n223.4908,3.843714\n223.3788,3.864980\n223.3778,3.856527\n223.2789,3.880097\n223.2773,3.867290\n223.1785,3.890860\n223.1774,3.882151\n223.0657,3.903673\n223.0644,3.892915\n222.9655,3.914180\n222.9644,3.905727\n222.8656,3.926992\n222.8643,3.916490\n222.7532,3.939805\n222.7519,3.929303\n222.6532,3.950568\n222.6519,3.939810\n222.5531,3.959026\n222.5523,3.952623\n222.4407,3.969790\n222.4397,3.961337\n222.3405,3.976198\n222.3398,3.969795\n222.2410,3.986962\n222.2400,3.978509\n222.1297,4.004129\n222.1279,3.989016\n222.0295,4.008232\n222.0293,4.006183\n221.9310,4.025399\n221.9289,4.008237\n221.8188,4.031808\n221.8182,4.027454\n221.7191,4.038217\n221.7186,4.033862\n221.6201,4.048980\n221.6191,4.040271\n221.5209,4.057438\n221.5202,4.051034\n221.4093,4.065896\n221.4085,4.059493\n221.3106,4.076659\n221.3096,4.068207\n221.2117,4.085373\n221.2109,4.078970\n221.1004,4.093832\n221.0996,4.087428\n221.0017,4.102290\n221.0009,4.095886\n220.9031,4.111004\n220.9020,4.102295\n220.7923,4.121511\n220.7913,4.113058\n220.6936,4.127920\n220.6928,4.121516\n220.5953,4.136634\n220.5945,4.130230\n220.4843,4.143043\n220.4838,4.138689\n220.3864,4.153550\n220.3854,4.145097\n220.2883,4.162264\n220.2876,4.155860\n220.1780,4.170722\n220.1772,4.164319\n220.0801,4.179436\n220.0793,4.173033\n219.9817,4.183540\n219.9812,4.179442\n219.8719,4.194304\n219.8709,4.185851\n219.7741,4.200712\n219.7733,4.194309\n219.6763,4.207121\n219.6757,4.202766\n219.5665,4.215579\n219.5655,4.207127\n219.4692,4.224293\n219.4684,4.217890\n219.3714,4.228397\n219.3709,4.224298\n219.2619,4.237111\n219.2612,4.230708\n219.1646,4.243520\n219.1638,4.237116\n219.0673,4.249929\n219.0668,4.245574\n218.9582,4.258387\n218.9574,4.251984\n218.8611,4.264796\n218.8603,4.258392\n218.7641,4.271204\n218.7636,4.267106\n218.6553,4.279919\n218.6542,4.271210\n218.5582,4.284022\n218.5577,4.279924\n218.4618,4.292736\n218.4610,4.286333\n218.3530,4.299146\n218.3522,4.292742\n218.2562,4.303249\n218.2557,4.299151\n218.1600,4.311963\n218.1592,4.305560\n218.0636,4.318372\n218.0629,4.311968\n217.9549,4.322476\n217.9544,4.318378\n217.8590,4.331190\n217.8580,4.322481\n217.7627,4.335293\n217.7622,4.331195\n217.6545,4.341702\n217.6538,4.335299\n217.5584,4.346062\n217.5579,4.341708\n217.4626,4.352471\n217.4621,4.348372\n217.3545,4.356831\n217.3540,4.352476\n217.2588,4.363240\n217.2583,4.358885\n217.1630,4.367599\n217.1628,4.365294\n217.0555,4.374008\n217.0550,4.369654\n216.9599,4.378112\n216.9596,4.376063\n216.8648,4.386826\n216.8641,4.380422\n216.7571,4.388881\n216.7569,4.386832\n216.6620,4.395289\n216.6615,4.390935\n216.5667,4.399649\n216.5664,4.397344\n216.4593,4.401704\n216.3646,4.410162\n216.2698,4.416570\n216.2691,4.410167\n216.1630,4.420930\n216.1625,4.416576\n216.0679,4.422985\n216.0676,4.420936\n215.9733,4.429393\n215.9729,4.425295\n215.8665,4.431704\n215.8662,4.429399\n215.7719,4.435808\n215.7717,4.433759\n215.6774,4.440167\n215.6772,4.438118\n215.5711,4.444528\n215.5709,4.442478\n215.4768,4.448887\n215.4763,4.444533\n215.2763,4.455302\n215.2760,4.452996\n215.1822,4.459405\n215.1819,4.457356\n215.0882,4.463764\n215.0879,4.461715\n214.9822,4.465819\n214.9820,4.463770\n214.8884,4.470179\n214.8882,4.468130\n214.7947,4.474538\n214.7944,4.472233\n214.7008,4.476593\n214.7005,4.474544\n214.5954,4.480953\n214.5949,4.476598\n214.5019,4.485056\n214.5015,4.480958\n214.4083,4.487367\n214.4080,4.485061\n214.3030,4.489422\n214.3028,4.487372\n214.2098,4.493781\n214.2095,4.491476\n214.1164,4.495835\n214.1161,4.493786\n214.0114,4.497890\n214.0111,4.495841\n213.9184,4.502250\n213.9182,4.500201\n213.8255,4.506609\n213.8252,4.504304\n213.7208,4.508664\n213.7205,4.506615\n213.6278,4.510719\n213.6276,4.508669\n213.5352,4.515078\n213.5349,4.513029\n213.4307,4.517133\n213.4305,4.515084\n213.3380,4.519443\n213.3378,4.517138\n213.1410,4.521503\n213.1407,4.519454\n213.0485,4.523558\n213.0483,4.521508\n212.9566,4.530222\n212.9561,4.525868\n212.8525,4.530228\n212.7608,4.536637\n212.7603,4.532282\n212.6686,4.538691\n212.6684,4.536642\n212.5650,4.540746\n212.5648,4.538697\n212.4731,4.543056\n212.4728,4.540751\n212.3812,4.545111\n212.3810,4.543062\n212.2781,4.549471\n212.2779,4.547166\n212.1864,4.551525\n212.1862,4.549476\n212.0945,4.551530\n211.9917,4.555890\n211.9915,4.553585\n211.9003,4.557945\n211.9000,4.555896\n211.8089,4.559999\n211.8086,4.557950\n211.7176,4.562309\n211.7173,4.560004\n211.6149,4.564364\n211.6147,4.562315\n211.5237,4.566419\n211.5235,4.564369\n211.4327,4.568729\n211.4324,4.566424\n211.3303,4.570784\n211.3301,4.568735\n211.2394,4.572838\n211.2391,4.570789\n211.1486,4.575149\n211.1483,4.572843\n211.0464,4.577203\n211.0462,4.575154\n210.9558,4.579258\n210.9556,4.577209\n210.8652,4.581568\n210.8650,4.579263\n210.7634,4.583623\n210.7631,4.581574\n210.6727,4.583628\n210.4808,4.587993\n210.3906,4.590048\n210.3904,4.587999\n210.3005,4.592102\n210.3003,4.590053\n210.1993,4.594413\n210.1990,4.592108\n210.1093,4.596467\n210.1091,4.594418\n209.9182,4.598527\n209.9180,4.596478\n209.8283,4.598532\n209.6381,4.604947\n209.6379,4.602898\n209.5487,4.607257\n209.5485,4.604952\n209.3584,4.607268\n209.2692,4.609322\n209.1800,4.611377\n209.1798,4.609327\n209.0798,4.613688\n209.0796,4.611382\n208.9908,4.615742\n208.9906,4.613693\n208.9017,4.615747\n208.8017,4.617802\n208.7128,4.617807\n208.6241,4.620117\n208.4357,4.622177\n208.4355,4.620128\n208.3470,4.622183\n208.1593,4.626548\n208.0709,4.626553\n207.9828,4.628607\n207.7072,4.628623\n207.6084,4.630934\n207.3338,4.630950\n207.2462,4.633005\n206.9728,4.635070\n206.9726,4.633021\n206.7871,4.635081\n206.7001,4.637391\n206.3409,4.637412\n206.2434,4.639467\n204.9061,4.639546\n204.8095,4.637503\n204.1054,4.637545\n204.0095,4.635246\n203.8397,4.635256\n203.7441,4.633213\n203.5747,4.633223\n203.4794,4.631180\n203.0471,4.631206\n202.9522,4.628906\n202.6059,4.628927\n202.5219,4.626883\n202.2606,4.626899\n202.2604,4.624850\n202.1769,4.624855\n202.0828,4.622556\n201.9995,4.622561\n201.9160,4.620517\n201.7393,4.620528\n201.6560,4.618228\n201.3969,4.618244\n201.3036,4.616200\n201.2209,4.616206\n201.1380,4.614162\n201.0452,4.614167\n200.9625,4.611867\n200.8800,4.611872\n200.8798,4.609823\n200.7049,4.609834\n200.6225,4.607790\n200.5301,4.607796\n200.4478,4.605496\n200.1918,4.605512\n200.1916,4.603462\n200.1098,4.603468\n200.1096,4.601418\n199.9356,4.597075\n199.5995,4.597096\n199.5180,4.595052\n199.4266,4.595058\n199.1726,4.588670\n199.0916,4.588675\n199.0105,4.586375\n198.8388,4.586386\n198.8386,4.584337\n198.7579,4.584342\n198.5056,4.577955\n198.4151,4.577960\n198.3346,4.575916\n198.1641,4.575927\n198.1638,4.573622\n198.0036,4.573632\n198.0034,4.571583\n197.9134,4.571589\n197.9132,4.569540\n197.8333,4.569545\n197.7532,4.567245\n197.6634,4.567250\n197.5835,4.565206\n197.4143,4.565217\n197.3345,4.563173\n197.2551,4.563178\n197.0860,4.558835\n197.0067,4.558840\n197.0065,4.556791\n196.9174,4.556797\n196.8380,4.554496\n196.6800,4.554507\n196.5910,4.552463\n196.5121,4.552468\n196.4331,4.550424\n196.3445,4.550430\n196.3443,4.548125\n196.2656,4.548130\n196.0982,4.544043\n196.0198,4.544048\n195.9411,4.541748\n195.7747,4.541758\n195.6963,4.539714\n195.6084,4.539720\n195.6082,4.537671\n195.3638,4.531284\n195.2080,4.531294\n195.1203,4.528994\n194.8777,4.529010\n194.8776,4.526961\n194.8000,4.526966\n194.7998,4.524661\n194.7224,4.524666\n194.6351,4.522623\n194.4806,4.522633\n194.3936,4.520590\n194.2394,4.520600\n194.1526,4.518300\n194.1524,4.516251\n193.8354,4.516272\n193.7586,4.514228\n193.4429,4.514249\n193.3568,4.511950\n192.4924,4.512008\n##END=\n'