b'##TITLE=Thiazole\n##JCAMP-DX=4.24\n##DATA TYPE=UV/VIS SPECTRUM\n##ORIGIN=INSTITUTE OF ENERGY PROBLEMS OF CHEMICAL PHYSICS, RAS\n##OWNER=INEP CP RAS, NIST OSRD\nCollection (C) 2007 copyright by the U.S. Secretary of Commerce\non behalf of the United States of America. All rights reserved.\n##CAS REGISTRY NO=288-47-1\n##MOLFORM=C3H3NS\n##BP=118\n##SOURCE REFERENCE=RAS UV No. 9074\n##$NIST SQUIB=1967PER/SCHg2/1C\n##$NIST SOURCE=TSGMTE\n##SPECTROMETER/DATA SYSTEM=Zeiss PMQ II\n##XUNITS=Wavelength (nm)\n##YUNITS=Logarithm epsilon\n##XFACTOR=1.000000\n##YFACTOR=1.000000\n##FIRSTX=261.8622\n##LASTX=184.8234\n##FIRSTY=1.14311\n##MAXX=261.862\n##MINX=184.823\n##MAXY=3.70954\n##MINY=1.14311\n##NPOINTS=955\n##$REF AUTHOR=Perkampus, H.-H.; Schmiele, c.; Braunschweig, T.H.\n##$REF TITLE=Thiazole\n##$REF BOOK TITLE=UV Atlas of Organic Compounds - Vol. 3\n##$REF PAGE=G2/1\n##$REF DATE=1967\n##$REF PUBLISHER=Plenum Press\n##$REF LOCATION=New York\n##XYPOINTS=(XY..XY)\n261.8622,1.143109\n261.7336,1.166563\n261.7225,1.145162\n261.6061,1.192057\n261.5940,1.168615\n261.4590,1.213220\n261.4481,1.192074\n261.3286,1.232343\n261.3187,1.213236\n261.1983,1.251468\n261.1884,1.232358\n261.0604,1.289703\n261.0550,1.279256\n261.0463,1.262185\n261.0419,1.253779\n260.9238,1.296088\n260.9217,1.292010\n260.9140,1.276979\n260.9074,1.264239\n260.7853,1.298395\n260.7841,1.296103\n260.6501,1.340961\n260.6293,1.300450\n260.5204,1.360086\n260.5117,1.343014\n260.3909,1.379209\n260.3822,1.362139\n260.2452,1.400372\n260.2354,1.381265\n260.1171,1.421790\n260.1062,1.400388\n259.9890,1.442951\n259.9793,1.423844\n259.8438,1.464115\n259.8330,1.442969\n259.7149,1.483239\n259.7052,1.464132\n259.5863,1.502618\n259.5776,1.485548\n259.4415,1.523783\n259.4318,1.504673\n259.3163,1.549276\n259.3044,1.525836\n259.1880,1.568400\n259.1793,1.551329\n259.0437,1.589819\n259.0328,1.568416\n258.9177,1.613019\n258.9060,1.589833\n258.7877,1.628066\n258.7813,1.615327\n258.6438,1.649231\n258.6341,1.630122\n258.5161,1.668354\n258.5065,1.649245\n258.3854,1.681108\n258.3789,1.668369\n258.2408,1.700235\n258.2324,1.683419\n258.1136,1.719358\n258.1051,1.702543\n257.9854,1.736444\n257.9780,1.721666\n257.8562,1.751237\n257.8498,1.738498\n257.7135,1.772655\n257.7039,1.753546\n257.5857,1.789741\n257.5771,1.772671\n257.4579,1.806572\n257.4505,1.791794\n257.3134,1.823659\n257.3060,1.808882\n257.1871,1.842783\n257.1785,1.825713\n257.0598,1.859869\n257.0513,1.842798\n256.9146,1.874663\n256.9083,1.861924\n256.7887,1.893787\n256.7803,1.876971\n256.6608,1.908834\n256.6545,1.896096\n256.5182,1.927960\n256.5097,1.910890\n256.3926,1.947084\n256.3842,1.930014\n256.2672,1.966208\n256.2577,1.947099\n256.1240,1.983296\n256.1156,1.966225\n255.9977,2.000126\n255.9894,1.983311\n255.8716,2.017212\n255.8643,2.002435\n255.7299,2.036338\n255.7205,2.017229\n255.6062,2.057755\n255.5967,2.038391\n255.4794,2.072547\n255.4721,2.057770\n255.3360,2.087342\n255.3287,2.072565\n255.2116,2.106466\n255.2033,2.089650\n255.0873,2.125590\n255.0790,2.108774\n254.9434,2.138600\n254.9382,2.127900\n254.8214,2.161801\n254.8110,2.140654\n254.6965,2.178887\n254.6892,2.164109\n254.5561,2.198012\n254.5477,2.180942\n254.4334,2.219174\n254.4241,2.200066\n254.3079,2.234222\n254.3005,2.219190\n254.1669,2.251309\n254.1595,2.236277\n254.0436,2.270433\n254.0353,2.253363\n253.9193,2.287264\n253.9111,2.270448\n253.7767,2.300020\n253.7716,2.289574\n253.6539,2.319399\n253.6456,2.302329\n253.5321,2.340561\n253.5228,2.321453\n253.4094,2.359685\n253.4011,2.342615\n253.2704,2.378811\n253.2621,2.361740\n253.1470,2.395896\n253.1397,2.380864\n253.0226,2.410689\n253.0165,2.397950\n252.8851,2.432108\n252.8759,2.412999\n252.7631,2.451232\n252.7549,2.434161\n252.6412,2.470356\n252.6330,2.453285\n252.5000,2.483112\n252.4948,2.472411\n252.3783,2.502236\n252.3701,2.485165\n252.2558,2.519321\n252.2485,2.504289\n252.1149,2.532078\n252.1098,2.521377\n251.9937,2.551201\n251.9855,2.534131\n251.8694,2.563956\n251.8643,2.553255\n251.7321,2.583082\n251.7239,2.566011\n251.6081,2.595836\n251.6030,2.585135\n251.4863,2.612922\n251.4791,2.597889\n251.3464,2.625678\n251.3413,2.614977\n251.2247,2.642509\n251.2177,2.627731\n251.1023,2.657556\n251.0963,2.644817\n250.9648,2.674389\n250.9577,2.659611\n250.8447,2.693767\n250.8366,2.676697\n250.7216,2.706522\n250.7165,2.695821\n250.5855,2.725648\n250.5774,2.708577\n250.4596,2.732032\n250.4566,2.725663\n250.3328,2.736124\n250.3318,2.734086\n250.1972,2.755250\n250.1881,2.736141\n250.0828,2.785075\n250.0698,2.757558\n249.9615,2.800122\n249.9555,2.787383\n249.8242,2.814916\n249.8182,2.802177\n249.7021,2.827671\n249.6970,2.816970\n249.5821,2.844756\n249.5751,2.829724\n249.4443,2.857513\n249.4393,2.846812\n249.3175,2.859566\n249.1940,2.868244\n249.1899,2.859581\n249.0785,2.893737\n249.0675,2.870298\n248.9392,2.902162\n248.9362,2.895793\n248.8179,2.914917\n248.8129,2.904216\n248.6959,2.925633\n248.6918,2.916970\n248.5579,2.936096\n248.5540,2.927688\n248.4352,2.944774\n248.4322,2.938404\n248.3135,2.955490\n248.3094,2.946827\n248.1760,2.965953\n248.1720,2.957545\n248.0525,2.972338\n248.0506,2.968262\n247.9312,2.983054\n247.9273,2.974646\n247.7961,2.997849\n247.7892,2.983071\n247.5491,3.008580\n247.5462,3.002211\n247.4126,3.019298\n247.4086,3.010635\n247.2908,3.027721\n247.2879,3.021352\n247.1702,3.038437\n247.1662,3.029775\n247.0321,3.044824\n247.0301,3.040493\n246.9107,3.053247\n246.9068,3.044839\n246.7905,3.063963\n246.7856,3.053262\n246.6537,3.072388\n246.6499,3.063980\n246.5328,3.081066\n246.5289,3.072403\n246.4119,3.089489\n246.4090,3.083119\n246.2747,3.095876\n246.2727,3.091544\n246.1540,3.104299\n246.1511,3.097929\n246.0345,3.115015\n246.0296,3.104314\n245.8986,3.123440\n245.8948,3.115032\n245.7765,3.127786\n245.7745,3.123455\n245.6563,3.136209\n245.6534,3.129840\n245.5209,3.144889\n245.5170,3.136227\n245.4010,3.153312\n245.3972,3.144905\n245.2803,3.159697\n245.2774,3.153328\n245.1443,3.166084\n245.1424,3.162007\n245.0249,3.174762\n245.0220,3.168392\n244.9064,3.185223\n244.9025,3.176815\n244.7852,3.189570\n244.7832,3.185238\n244.6507,3.197995\n244.6478,3.191625\n244.5317,3.206672\n244.5278,3.198010\n244.4128,3.215095\n244.4090,3.206688\n244.2768,3.219444\n244.2748,3.215113\n244.1581,3.227867\n244.1543,3.219459\n244.0386,3.234252\n244.0357,3.227882\n243.9039,3.240639\n243.9021,3.236562\n243.7847,3.247023\n243.7829,3.242947\n243.6666,3.255701\n243.6637,3.249332\n243.5324,3.262088\n243.5304,3.257757\n243.4135,3.268473\n243.4115,3.264141\n243.2956,3.276896\n243.2928,3.270526\n243.1618,3.283283\n243.1599,3.278951\n243.0433,3.289667\n243.0413,3.285336\n242.9249,3.296052\n242.9220,3.289683\n242.7914,3.302439\n242.7895,3.298108\n242.6733,3.308824\n242.6713,3.304492\n242.5561,3.317247\n242.5524,3.308839\n242.4222,3.321595\n242.4203,3.317264\n242.3044,3.327980\n242.3016,3.321611\n242.1877,3.336658\n242.1849,3.330288\n242.0541,3.340752\n242.0532,3.338713\n241.9377,3.349429\n241.9338,3.340767\n241.8184,3.351483\n241.8175,3.349445\n241.6871,3.359908\n241.6843,3.353538\n241.5682,3.362216\n241.5672,3.359923\n241.4513,3.368601\n241.4493,3.364270\n241.2008,3.377041\n241.1989,3.372710\n241.0833,3.381388\n241.0823,3.379095\n240.9500,3.383443\n240.9491,3.381405\n240.8327,3.387790\n240.8317,3.385497\n240.7154,3.391882\n240.7145,3.389843\n240.5975,3.394190\n240.5965,3.391897\n240.4656,3.398284\n240.4638,3.394207\n240.0998,3.409032\n240.0979,3.404701\n239.7341,3.417743\n239.7331,3.415450\n239.6179,3.421834\n239.6171,3.419796\n239.5011,3.424143\n239.5001,3.421850\n239.3704,3.428236\n239.3686,3.424160\n239.2547,3.432583\n239.2538,3.430545\n239.1380,3.434637\n239.1372,3.432598\n239.0079,3.438985\n239.0070,3.436947\n238.7762,3.445385\n238.7753,3.443347\n238.6464,3.449734\n238.6454,3.447441\n238.4164,3.458172\n238.4145,3.453841\n238.2860,3.460227\n238.2851,3.458189\n238.0557,3.466627\n238.0548,3.464589\n237.9267,3.470976\n237.9249,3.466645\n237.8114,3.473030\n237.8105,3.470991\n237.6963,3.475338\n237.6953,3.473045\n237.5676,3.479432\n237.5667,3.477393\n237.4527,3.481740\n237.4517,3.479447\n237.2105,3.490180\n237.2086,3.485849\n237.0958,3.492234\n237.0950,3.490195\n236.9823,3.496580\n236.9814,3.494542\n236.8535,3.498636\n236.8526,3.496597\n236.6251,3.502998\n236.5111,3.505306\n236.5102,3.503013\n236.3847,3.511693\n236.3820,3.505323\n236.2708,3.513746\n236.2700,3.511708\n236.1571,3.515800\n236.1563,3.513761\n236.0293,3.518110\n236.0283,3.515817\n235.9167,3.522202\n235.9158,3.520163\n235.8034,3.524510\n235.8024,3.522217\n235.6758,3.526565\n235.6750,3.524527\n235.4488,3.528634\n235.4479,3.526596\n235.2089,3.532998\n235.0962,3.535052\n235.0954,3.533013\n234.8553,3.535084\n234.7430,3.537392\n234.6158,3.537410\n234.5036,3.539463\n234.3916,3.541517\n234.3908,3.539478\n234.2647,3.541534\n234.1530,3.543842\n233.5634,3.543922\n233.4505,3.541645\n232.2951,3.541803\n232.1852,3.544112\n231.9502,3.544144\n231.8388,3.541866\n231.2608,3.541947\n231.1502,3.539924\n230.9172,3.539956\n230.8070,3.537933\n230.4656,3.537981\n230.3420,3.535705\n230.0020,3.535753\n230.0012,3.533715\n229.8926,3.533730\n229.8918,3.531692\n229.7833,3.531707\n229.7824,3.529414\n229.6605,3.529431\n229.5514,3.527408\n229.4433,3.527423\n229.3209,3.525402\n229.2129,3.525418\n229.2120,3.523125\n229.1042,3.523140\n229.1034,3.521102\n228.9822,3.521119\n228.9814,3.519081\n228.8738,3.519096\n228.6571,3.514795\n228.5364,3.514812\n228.4283,3.512789\n228.4274,3.510496\n228.3195,3.508473\n228.0923,3.508506\n228.0915,3.506468\n227.9838,3.504190\n227.8638,3.504207\n227.7564,3.502184\n227.7555,3.499891\n227.6482,3.497868\n227.5285,3.497885\n227.4215,3.495862\n227.4206,3.493569\n227.3136,3.491546\n227.1943,3.491564\n227.0876,3.489541\n227.0867,3.487248\n226.9808,3.487263\n226.8611,3.485242\n226.7554,3.485257\n226.7546,3.483219\n226.6491,3.483234\n226.6474,3.478903\n226.5280,3.476882\n226.4227,3.476897\n226.1975,3.472598\n226.1958,3.468267\n226.0908,3.468282\n225.7607,3.461961\n225.7600,3.459922\n225.4309,3.453601\n225.4301,3.451562\n225.3258,3.451578\n225.3241,3.447246\n225.2069,3.447264\n225.1020,3.445241\n224.9980,3.445256\n224.9971,3.442963\n224.8932,3.442978\n224.8917,3.438902\n224.7749,3.438919\n224.7740,3.436626\n224.6703,3.436641\n224.6695,3.434603\n224.5659,3.434618\n224.3444,3.430319\n224.3436,3.428281\n224.2403,3.428296\n224.2395,3.426258\n224.1234,3.426275\n224.1225,3.423982\n224.0194,3.423998\n223.7991,3.419954\n223.7982,3.417660\n223.6954,3.417676\n223.6947,3.415638\n223.5919,3.415653\n223.4756,3.413377\n223.3731,3.413392\n223.3724,3.411354\n223.2699,3.411369\n223.2692,3.409331\n223.0502,3.405032\n222.9481,3.405048\n222.5120,3.396705\n222.5111,3.394412\n222.4095,3.394427\n222.3072,3.392404\n222.1930,3.392421\n222.1914,3.388090\n222.0901,3.388105\n222.0886,3.384029\n221.9865,3.381751\n221.9857,3.379713\n221.8719,3.379730\n221.5541,3.373408\n221.4533,3.373424\n221.4526,3.371385\n221.3519,3.371401\n221.3503,3.367069\n221.2497,3.367085\n221.2490,3.365046\n221.1359,3.365063\n221.0347,3.362786\n220.9344,3.362801\n220.8210,3.360780\n220.7209,3.360795\n220.7193,3.356464\n220.6193,3.356479\n220.5061,3.354458\n220.4063,3.354474\n220.3059,3.352451\n220.0943,3.352483\n219.9940,3.350205\n219.7830,3.350238\n219.6831,3.348215\n218.5492,3.348391\n218.4519,3.350444\n218.2438,3.350477\n218.1469,3.352785\n217.7445,3.352848\n217.6358,3.354903\n217.4414,3.354934\n217.1407,3.361351\n216.9351,3.361384\n216.8392,3.363437\n216.6342,3.363470\n216.5387,3.365778\n216.3350,3.367849\n216.3343,3.365811\n216.2396,3.369902\n216.2389,3.367864\n216.1325,3.372213\n216.1317,3.369920\n215.9408,3.372243\n215.8338,3.374299\n215.5353,3.374346\n215.2398,3.380764\n215.1454,3.382817\n215.1447,3.380779\n214.9436,3.382850\n214.8496,3.385158\n214.6483,3.385191\n214.5544,3.387244\n214.4607,3.389298\n214.4599,3.387259\n214.3670,3.391606\n214.3662,3.389313\n214.2609,3.391623\n214.1674,3.393677\n213.9674,3.393709\n213.8741,3.395763\n213.7802,3.395778\n213.6755,3.398088\n213.5825,3.400142\n213.5818,3.398104\n213.4895,3.402195\n213.4888,3.400157\n213.2908,3.402228\n213.1982,3.404536\n213.0001,3.404569\n212.9076,3.406622\n212.8030,3.406639\n212.7107,3.408693\n212.6186,3.411001\n212.6178,3.408708\n212.5142,3.411018\n212.4222,3.413072\n212.2255,3.413104\n212.1337,3.415158\n211.5585,3.417547\n211.5577,3.415253\n211.0884,3.417625\n210.9862,3.419680\n210.8956,3.421989\n210.8949,3.419696\n210.4179,3.424107\n210.4172,3.422069\n209.4787,3.424266\n209.3893,3.426319\n208.5486,3.426463\n208.4475,3.424442\n208.1801,3.424487\n208.0794,3.422466\n207.9905,3.422482\n207.8005,3.418183\n207.6233,3.418213\n207.5230,3.415938\n207.1588,3.416001\n207.0701,3.413978\n206.9710,3.413995\n206.6944,3.407673\n206.5191,3.407704\n206.4200,3.405683\n206.2451,3.405713\n206.1462,3.403437\n206.0589,3.403453\n205.7847,3.397131\n205.6001,3.397163\n205.5127,3.395140\n205.3285,3.395173\n205.1541,3.390872\n205.1535,3.388834\n205.0671,3.388849\n204.9693,3.386828\n204.7969,3.386859\n204.6994,3.384583\n204.6133,3.384598\n204.6127,3.382560\n204.5268,3.382575\n204.5261,3.380537\n204.4295,3.380554\n204.4288,3.378261\n204.3430,3.378276\n204.2566,3.376254\n204.1603,3.376271\n204.0741,3.374248\n203.9886,3.374263\n203.9879,3.371970\n203.8918,3.371987\n203.8912,3.369949\n203.8058,3.369964\n203.8052,3.367926\n203.7199,3.367941\n203.6234,3.365665\n203.5382,3.365681\n203.4526,3.363658\n203.3570,3.363675\n203.2715,3.361652\n203.2707,3.359359\n203.1853,3.357336\n203.0899,3.357353\n203.0046,3.355330\n202.9200,3.355346\n202.8242,3.353070\n202.7398,3.353085\n202.7392,3.351047\n202.6548,3.351062\n202.6542,3.349024\n202.5586,3.346748\n202.4744,3.346763\n202.3896,3.344740\n202.2950,3.344757\n202.2944,3.342719\n202.2104,3.342735\n202.2097,3.340442\n202.1257,3.340457\n202.1251,3.338419\n202.0412,3.338434\n202.0406,3.336396\n201.9463,3.336413\n201.8619,3.334135\n201.7783,3.334150\n201.7776,3.332112\n201.6836,3.332129\n201.6830,3.330091\n201.5147,3.325790\n201.4210,3.325808\n201.3370,3.323530\n201.2538,3.323545\n201.2531,3.321507\n201.1590,3.319486\n201.1583,3.317193\n201.0752,3.317208\n200.9916,3.315185\n200.8983,3.315202\n200.8977,3.313164\n200.8148,3.313179\n200.8135,3.308848\n200.7307,3.308863\n200.7301,3.306825\n200.6371,3.306842\n200.5537,3.304565\n200.4712,3.304580\n200.3778,3.302559\n200.3771,3.300520\n200.2947,3.300536\n200.2940,3.298243\n200.2117,3.298258\n200.2111,3.296220\n200.0363,3.296252\n199.9535,3.294229\n199.7792,3.294262\n199.7785,3.291969\n199.6966,3.291984\n199.6953,3.287908\n199.5215,3.287940\n199.4391,3.285662\n199.1841,3.285710\n199.1021,3.283687\n199.0105,3.283704\n198.9286,3.281681\n198.9279,3.279388\n198.8467,3.279404\n198.8461,3.277365\n198.7548,3.277383\n198.7542,3.275344\n198.6731,3.275360\n198.5914,3.273082\n198.5902,3.269005\n198.4991,3.269023\n198.4984,3.266730\n198.4169,3.264707\n198.3361,3.264722\n198.3355,3.262684\n198.2440,3.260408\n198.2434,3.258370\n198.1621,3.256347\n198.1614,3.254054\n198.0808,3.254069\n198.0802,3.252031\n197.9890,3.250009\n197.9883,3.247716\n197.7352,3.241395\n197.7346,3.239356\n197.4821,3.233035\n197.4020,3.233050\n197.4014,3.230757\n197.3214,3.230772\n197.3208,3.228734\n197.2303,3.226713\n197.1504,3.226728\n197.0699,3.224450\n196.8210,3.224498\n196.7310,3.222477\n196.4036,3.222540\n196.3251,3.224594\n195.8316,3.224689\n195.7535,3.226998\n195.6650,3.227015\n195.3437,3.235486\n195.2653,3.235501\n195.1780,3.237811\n195.1003,3.239865\n195.0998,3.237827\n195.0228,3.241918\n195.0222,3.239880\n194.8582,3.246282\n194.7808,3.248336\n194.7802,3.246297\n194.6945,3.252684\n194.6939,3.250646\n194.6172,3.254738\n194.6166,3.252699\n194.5395,3.254753\n194.4539,3.261140\n194.4527,3.257063\n194.3769,3.263448\n194.3763,3.261155\n194.2140,3.269850\n194.2134,3.267557\n194.1377,3.273942\n194.1372,3.271903\n193.9752,3.280344\n193.9746,3.278306\n193.8992,3.284690\n193.8986,3.282652\n193.7377,3.293131\n193.7365,3.289054\n193.5866,3.303862\n193.5848,3.297492\n193.4256,3.312302\n193.4245,3.308226\n193.2751,3.323034\n193.2733,3.316664\n193.1152,3.333767\n193.1134,3.327397\n193.0399,3.338113\n193.0392,3.335820\n192.9556,3.344500\n192.9538,3.338131\n192.8810,3.350885\n192.8798,3.346554\n192.8058,3.354977\n192.8046,3.350900\n192.7211,3.359325\n192.7206,3.357287\n192.6467,3.365710\n192.6455,3.361379\n192.4872,3.374150\n192.4861,3.370074\n192.4124,3.378497\n192.4118,3.376459\n192.3376,3.382843\n192.3364,3.378512\n192.2533,3.386937\n192.2527,3.384899\n192.1040,3.395630\n192.1028,3.391299\n192.0194,3.397686\n192.0188,3.395648\n191.9449,3.402032\n191.9437,3.397701\n191.8704,3.406124\n191.8698,3.404086\n191.7860,3.408434\n191.7854,3.406141\n191.7123,3.414819\n191.7105,3.408450\n191.6374,3.416873\n191.6368,3.414834\n191.5538,3.421221\n191.5531,3.418928\n191.4802,3.427606\n191.4790,3.423275\n191.4055,3.429660\n191.4049,3.427621\n191.3221,3.434008\n191.3209,3.429677\n191.2482,3.438355\n191.2475,3.436062\n191.0910,3.446795\n191.0898,3.442464\n190.9434,3.455233\n190.9423,3.451157\n190.8698,3.459580\n190.8692,3.457542\n190.7869,3.463928\n190.7862,3.461635\n190.7133,3.468020\n190.7127,3.465982\n190.6398,3.472367\n190.6392,3.470328\n190.5576,3.478753\n190.5564,3.474422\n190.4109,3.487192\n190.4098,3.483115\n190.2552,3.495887\n190.2540,3.491555\n190.1820,3.499978\n190.1808,3.495902\n190.0991,3.502289\n190.0984,3.499996\n189.9525,3.508689\n189.9519,3.506396\n189.8709,3.515076\n189.8697,3.510744\n189.7981,3.519422\n189.7974,3.517129\n189.7252,3.523514\n189.7247,3.521476\n189.6433,3.527862\n189.6421,3.523531\n189.5706,3.532209\n189.5700,3.529916\n189.4980,3.536301\n189.4974,3.534262\n189.4162,3.540649\n189.4157,3.538611\n189.2712,3.549088\n189.2701,3.545011\n189.1168,3.555490\n189.1162,3.553451\n189.0445,3.559836\n189.0440,3.557798\n188.9631,3.564185\n188.9625,3.561892\n188.8909,3.568276\n188.8904,3.566238\n188.8189,3.572623\n188.8183,3.570585\n188.6657,3.581063\n188.6646,3.576987\n188.4398,3.589774\n188.4392,3.587481\n188.3680,3.593865\n188.3675,3.591827\n188.2958,3.596174\n188.2952,3.593881\n188.2150,3.600267\n188.2145,3.598229\n187.9908,3.611016\n187.9897,3.606939\n187.7666,3.619726\n187.7660,3.617433\n187.6953,3.623818\n187.6948,3.621780\n187.4718,3.632528\n187.4712,3.630235\n187.2487,3.640984\n187.2482,3.638946\n187.1779,3.645330\n187.1773,3.643037\n187.0975,3.647386\n187.0970,3.645348\n187.0262,3.649439\n187.0257,3.647401\n186.9556,3.653786\n186.9544,3.649455\n186.8754,3.655841\n186.8748,3.653803\n186.8037,3.655857\n186.6532,3.662259\n186.6527,3.660221\n186.5823,3.664567\n186.5817,3.662274\n186.5114,3.666621\n186.5108,3.664582\n186.4316,3.668676\n186.4310,3.666638\n186.3608,3.670984\n186.3602,3.668691\n186.2901,3.673038\n186.2895,3.671000\n186.2104,3.675093\n186.2099,3.673055\n186.1399,3.677402\n186.1393,3.675109\n186.0693,3.679455\n186.0687,3.677417\n185.9898,3.681511\n185.9893,3.679472\n185.9194,3.683819\n185.9188,3.681526\n185.8490,3.685873\n185.8485,3.683834\n185.7786,3.687926\n185.7781,3.685888\n185.6995,3.690236\n185.6989,3.687943\n185.6287,3.690252\n185.4801,3.696654\n185.4796,3.694615\n185.4100,3.698707\n185.4095,3.696669\n185.2607,3.701033\n185.2601,3.698740\n185.1908,3.703086\n185.1903,3.701048\n185.1209,3.705140\n185.1204,3.703101\n185.0424,3.707450\n185.0418,3.705157\n184.9726,3.709504\n184.9721,3.707465\n184.8234,3.709536\n##END=\n'