b'##TITLE=Pyridazine\n##JCAMP-DX=4.24\n##DATA TYPE=UV/VIS SPECTRUM\n##ORIGIN=INSTITUTE OF ENERGY PROBLEMS OF CHEMICAL PHYSICS, RAS\n##OWNER=INEP CP RAS, NIST OSRD\nCollection (C) 2007 copyright by the U.S. Secretary of Commerce\non behalf of the United States of America. All rights reserved.\n##CAS REGISTRY NO=289-80-5\n##MOLFORM=C4H4N2\n##MP=- 8\n##BP=208\n##SOURCE REFERENCE=RAS UV No. 12007\n##$NIST SQUIB=1951HAL/HIR711\n##$NIST SOURCE=TYUGLMTE\n##SPECTROMETER/DATA SYSTEM=Beckman DU\n##XUNITS=Wavelength (nm)\n##YUNITS=Logarithm epsilon\n##XFACTOR=1.0\n##YFACTOR=1.0\n##FIRSTX=209.9\n##LASTX=350.16\n##FIRSTY=2.51\n##MAXX=350.16\n##MINX=209.9\n##MAXY=3.125\n##MINY=1\n##NPOINTS=199\n##$REF AUTHOR=Halverson, F.; Hirt, R.C.\n##$REF JOURNAL=J. Chem. Phys.\n##$REF VOLUME=19\n##$REF PAGE=711\n##$REF DATE=1951\n##XYPOINTS=(XY..XY)\n209.90,2.510\n210.25,2.485\n210.60,2.466\n210.95,2.446\n211.30,2.441\n212.01,2.421\n212.37,2.397\n212.72,2.387\n213.08,2.377\n213.44,2.372\n213.80,2.377\n214.53,2.362\n215.26,2.367\n215.63,2.367\n215.99,2.367\n216.36,2.372\n217.11,2.397\n217.85,2.402\n218.23,2.407\n218.61,2.421\n218.99,2.451\n219.37,2.456\n219.75,2.470\n220.51,2.490\n220.90,2.500\n221.29,2.515\n221.67,2.530\n222.06,2.559\n222.85,2.574\n223.24,2.584\n223.63,2.598\n224.03,2.613\n224.43,2.643\n224.83,2.648\n225.23,2.667\n225.63,2.677\n226.03,2.692\n226.84,2.736\n227.25,2.761\n227.66,2.766\n228.07,2.780\n228.48,2.800\n228.90,2.820\n229.73,2.844\n230.15,2.854\n230.56,2.859\n230.99,2.879\n231.83,2.908\n232.26,2.938\n232.69,2.943\n233.11,2.952\n233.55,2.972\n234.41,3.002\n234.85,3.016\n235.28,3.021\n235.72,3.036\n236.16,3.046\n237.05,3.075\n237.94,3.100\n238.39,3.110\n238.84,3.120\n239.29,3.125\n240.66,3.125\n241.58,3.115\n242.04,3.110\n242.50,3.105\n242.97,3.105\n243.44,3.110\n244.85,3.120\n245.80,3.100\n246.28,3.070\n246.76,3.056\n247.73,2.977\n248.21,2.957\n248.70,2.943\n249.19,2.943\n250.18,2.923\n251.17,2.884\n251.67,2.864\n252.17,2.864\n252.68,2.834\n253.18,2.761\n253.69,2.682\n254.20,2.648\n254.71,2.534\n255.23,2.495\n255.74,2.421\n256.26,2.377\n256.78,2.313\n257.30,2.274\n257.83,2.269\n258.36,2.220\n258.88,2.195\n259.42,2.170\n259.95,2.121\n260.48,2.092\n261.02,2.077\n261.56,2.052\n262.10,2.033\n262.65,2.028\n263.19,2.023\n263.74,2.018\n264.85,2.013\n265.40,2.018\n266.52,2.028\n267.09,2.028\n267.65,2.033\n268.22,2.048\n268.79,2.072\n269.94,2.077\n270.51,2.082\n271.09,2.097\n272.26,2.116\n273.44,2.136\n274.03,2.146\n274.63,2.156\n275.22,2.175\n276.43,2.200\n277.03,2.200\n277.64,2.215\n278.25,2.239\n278.86,2.239\n279.48,2.264\n280.10,2.254\n280.72,2.269\n281.97,2.293\n283.24,2.313\n283.87,2.318\n285.15,2.343\n286.44,2.362\n287.09,2.372\n287.75,2.377\n289.06,2.387\n290.39,2.392\n291.06,2.397\n292.41,2.421\n293.76,2.441\n294.45,2.436\n295.14,2.446\n296.52,2.451\n298.62,2.456\n299.33,2.461\n300.04,2.466\n301.47,2.466\n302.91,2.466\n303.64,2.461\n304.37,2.451\n305.10,2.456\n306.58,2.446\n308.08,2.441\n308.83,2.426\n309.59,2.421\n310.35,2.426\n311.11,2.411\n312.65,2.377\n313.42,2.372\n314.20,2.362\n315.77,2.338\n317.35,2.308\n318.15,2.293\n318.96,2.293\n319.76,2.254\n320.57,2.230\n321.39,2.210\n322.21,2.190\n323.03,2.161\n323.86,2.156\n324.69,2.111\n325.52,2.092\n326.36,2.067\n327.21,2.067\n328.06,2.008\n328.91,1.993\n329.77,1.964\n330.63,1.905\n331.50,1.895\n332.37,1.866\n333.24,1.811\n334.12,1.797\n335.01,1.772\n335.90,1.708\n336.79,1.669\n337.69,1.605\n338.60,1.590\n339.51,1.507\n340.42,1.477\n341.34,1.369\n342.26,1.359\n343.19,1.320\n343.50,1.270\n343.81,1.266\n344.13,1.261\n344.44,1.256\n344.75,1.251\n345.06,1.246\n345.70,1.200\n347.60,1.130\n348.23,1.090\n350.16,1.000\n##END=\n'