b'##TITLE=1,3-Diazine\n##JCAMP-DX=4.24\n##DATA TYPE=UV/VIS SPECTRUM\n##ORIGIN=INSTITUTE OF ENERGY PROBLEMS OF CHEMICAL PHYSICS, RAS\n##OWNER=INEP CP RAS, NIST OSRD\nCollection (C) 2007 copyright by the U.S. Secretary of Commerce\non behalf of the United States of America. All rights reserved.\n##CAS REGISTRY NO=289-95-2\n##MOLFORM=C4H4N2\n##MP=22\n##BP=123.8\n##SOURCE REFERENCE=RAS UV No. 14\n##$NIST SQUIB=1957BRE/GOM942-952\n##$NIST SOURCE=TSGMTE\n##SPECTROMETER/DATA SYSTEM=Spectrophotometer SF-16\n##XUNITS=Wavelength (nm)\n##YUNITS=Logarithm epsilon\n##XFACTOR=1.000000\n##YFACTOR=1.000000\n##FIRSTX=210.0000\n##LASTX=299.0000\n##FIRSTY=2.93\n##MAXX=299\n##MINX=210\n##MAXY=3.28001\n##MINY=2.15\n##NPOINTS=90\n##$REF AUTHOR=Bredereck, H.; Gompper, R.; Morlock, G.\n##$REF TITLE=Eine neue pyrimidin-synthese\n##$REF JOURNAL=Chem. Ber.\n##$REF VOLUME=90\n##$REF PAGE=942-952\n##$REF DATE=1957\n##XYPOINTS=(XY..XY)\n210.0000,2.930001\n211.0000,2.860000\n212.0000,2.850000\n213.0000,2.790000\n214.0000,2.760000\n215.0000,2.720000\n216.0000,2.680000\n217.0000,2.660000\n218.0000,2.640000\n219.0000,2.640000\n220.0000,2.630000\n221.0000,2.630000\n222.0000,2.640000\n223.0000,2.660000\n224.0000,2.700000\n225.0000,2.720000\n226.0000,2.760000\n227.0000,2.810000\n228.0000,2.900000\n229.0000,2.940000\n230.0000,2.979999\n231.0000,3.010000\n232.0000,3.040000\n233.0000,3.070000\n234.0000,3.100000\n235.0000,3.140000\n236.0000,3.170000\n237.0000,3.200000\n238.0000,3.230000\n239.0000,3.280000\n240.0000,3.280009\n241.0000,3.250000\n242.0000,3.250000\n243.0000,3.270000\n244.0000,3.280000\n245.0000,3.280000\n246.0000,3.270000\n247.0000,3.220000\n248.0000,3.190000\n249.0000,3.130000\n250.0000,3.060018\n251.0000,2.950000\n252.0000,2.810000\n253.0000,2.690000\n254.0000,2.570000\n255.0000,2.500000\n256.0000,2.440000\n257.0000,2.390000\n258.0000,2.380000\n259.0000,2.370000\n260.0000,2.360006\n261.0000,2.350000\n262.0000,2.350000\n263.0000,2.350000\n264.0000,2.360000\n265.0000,2.370000\n266.0000,2.380000\n267.0000,2.380000\n268.0000,2.390000\n269.0000,2.400000\n270.0000,2.410001\n271.0000,2.420000\n272.0000,2.430000\n273.0000,2.440000\n274.0000,2.450000\n275.0000,2.460000\n276.0000,2.470000\n277.0000,2.470000\n278.0000,2.480000\n279.0000,2.480000\n280.0000,2.480007\n281.0000,2.480000\n282.0000,2.470000\n283.0000,2.470000\n284.0000,2.460000\n285.0000,2.450000\n286.0000,2.440000\n287.0000,2.420000\n288.0000,2.410000\n289.0000,2.390000\n290.0000,2.369995\n291.0000,2.350000\n292.0000,2.330000\n293.0000,2.310000\n294.0000,2.290000\n295.0000,2.250000\n296.0000,2.230000\n297.0000,2.200000\n298.0000,2.190000\n299.0000,2.150000\n##END=\n'