b'##TITLE=Pyrazine\n##JCAMP-DX=4.24\n##DATA TYPE=UV/VIS SPECTRUM\n##ORIGIN=INSTITUTE OF ENERGY PROBLEMS OF CHEMICAL PHYSICS, RAS\n##OWNER=INEP CP RAS, NIST OSRD\nCollection (C) 2007 copyright by the U.S. Secretary of Commerce\non behalf of the United States of America. All rights reserved.\n##CAS REGISTRY NO=290-37-9\n##MOLFORM=C4H4N2\n##MP=47\n##BP=115.5-115.8/ 768.4 mm\n##SOURCE REFERENCE=RAS UV No. 10436\n##$NIST SQUIB=1951HAL/HIR711\n##$NIST SOURCE=TYUGLMTE\n##SPECTROMETER/DATA SYSTEM=Beckman DU\n##XUNITS=Wavelength (nm)\n##YUNITS=Logarithm epsilon\n##XFACTOR=1.0\n##YFACTOR=1.0\n##FIRSTX=215.81\n##LASTX=329.59\n##FIRSTY=2.031\n##MAXX=329.59\n##MINX=215.81\n##MAXY=3.803\n##MINY=1.799\n##NPOINTS=154\n##$REF AUTHOR=Halverson, F.; Hirt, R.C.\n##$REF JOURNAL=J. Chem. Phys.\n##$REF VOLUME=19\n##$REF PAGE=711\n##$REF DATE=1951\n##XYPOINTS=(XY..XY)\n215.81,2.031\n216.32,2.036\n216.82,2.046\n217.33,2.056\n217.83,2.056\n218.34,2.076\n218.86,2.090\n219.37,2.110\n219.89,2.120\n220.41,2.135\n220.93,2.150\n221.46,2.164\n221.99,2.189\n222.52,2.209\n223.05,2.224\n223.58,2.243\n224.12,2.283\n224.66,2.308\n225.21,2.337\n225.75,2.362\n226.30,2.401\n226.85,2.431\n227.41,2.470\n227.96,2.500\n228.52,2.530\n229.08,2.569\n229.65,2.599\n230.22,2.633\n230.79,2.668\n231.36,2.692\n231.94,2.727\n232.51,2.762\n233.10,2.796\n233.68,2.831\n234.27,2.860\n234.86,2.900\n235.45,2.929\n236.05,2.959\n236.65,2.993\n237.25,3.028\n237.86,3.067\n238.47,3.107\n239.08,3.137\n239.69,3.166\n240.31,3.201\n240.93,3.235\n241.56,3.270\n242.19,3.304\n242.82,3.329\n243.45,3.359\n244.09,3.393\n244.73,3.418\n245.38,3.438\n246.02,3.467\n246.68,3.487\n247.33,3.516\n247.99,3.536\n248.65,3.561\n249.32,3.586\n249.99,3.610\n250.66,3.635\n251.33,3.660\n252.01,3.669\n252.70,3.679\n253.39,3.684\n254.08,3.689\n254.77,3.699\n255.47,3.709\n256.17,3.734\n256.88,3.778\n257.59,3.798\n258.30,3.803\n259.02,3.803\n259.74,3.798\n260.47,3.773\n261.20,3.753\n261.94,3.734\n262.67,3.714\n263.42,3.704\n264.16,3.709\n264.91,3.709\n265.67,3.709\n266.43,3.689\n267.19,3.660\n267.96,3.590\n268.74,3.502\n269.51,3.413\n270.30,3.304\n271.08,3.245\n271.87,3.156\n272.67,3.097\n273.47,3.033\n274.28,2.964\n275.09,2.914\n275.90,2.865\n276.72,2.821\n277.54,2.786\n278.37,2.762\n279.21,2.742\n280.05,2.727\n280.89,2.707\n281.74,2.702\n282.60,2.692\n283.46,2.688\n284.32,2.683\n285.19,2.688\n286.07,2.688\n286.95,2.697\n287.84,2.702\n288.73,2.712\n289.62,2.727\n290.53,2.742\n291.44,2.757\n292.35,2.776\n293.27,2.786\n294.20,2.801\n295.13,2.806\n296.07,2.821\n297.01,2.826\n297.96,2.831\n298.92,2.845\n299.88,2.850\n300.85,2.855\n301.82,2.860\n302.81,2.870\n303.79,2.870\n304.79,2.870\n305.79,2.865\n306.79,2.855\n307.81,2.850\n308.83,2.840\n309.86,2.831\n310.89,2.816\n311.93,2.791\n312.98,2.771\n314.03,2.752\n315.10,2.717\n316.17,2.688\n317.24,2.643\n318.33,2.594\n319.42,2.535\n320.52,2.461\n321.62,2.382\n322.74,2.298\n323.86,2.234\n324.99,2.115\n326.13,2.012\n327.27,1.913\n328.14,1.829\n328.43,1.824\n328.72,1.819\n329.01,1.814\n329.30,1.804\n329.59,1.799\n##END=\n'