b'##TITLE=Propen-2-ol\n##JCAMP-DX=4.24\n##DATA TYPE=UV/VIS SPECTRUM\n##ORIGIN=INSTITUTE OF ENERGY PROBLEMS OF CHEMICAL PHYSICS, RAS\n##OWNER=INEP CP RAS, NIST OSRD\nCollection (C) 2007 copyright by the U.S. Secretary of Commerce\non behalf of the United States of America. All rights reserved.\n##CAS REGISTRY NO=29456-04-0\n##MOLFORM=C3H6O\n##BP=95-97\n##SOURCE REFERENCE=RAS UV No. 19912\n##$NIST SQUIB=1966PERa1/1\n##$NIST SOURCE=TYUGLMTE\n##SPECTROMETER/DATA SYSTEM=Zeiss PMQ II\n##XUNITS=Wavelength (nm)\n##YUNITS=Logarithm epsilon\n##XFACTOR=1.0\n##YFACTOR=1.0\n##FIRSTX=181.96\n##LASTX=208.46\n##FIRSTY=3.789\n##MAXX=208.46\n##MINX=181.96\n##MAXY=3.789\n##MINY=1.019\n##NPOINTS=121\n##$REF AUTHOR=Perkampus, H.-H.\n##$REF JOURNAL=UV atlas of organic compounds\n##$REF VOLUME=1\n##$REF PAGE=A1/1\n##$REF DATE=1966\n##XYPOINTS=(XY..XY)\n181.96,3.789\n182.03,3.787\n182.10,3.785\n182.16,3.783\n182.24,3.780\n182.32,3.777\n182.39,3.775\n182.46,3.772\n182.53,3.770\n182.60,3.768\n182.67,3.766\n182.74,3.763\n182.80,3.760\n182.87,3.756\n182.93,3.752\n182.99,3.749\n183.07,3.743\n183.24,3.734\n183.46,3.725\n183.68,3.715\n183.89,3.706\n184.11,3.698\n184.32,3.689\n184.53,3.681\n184.76,3.672\n184.98,3.666\n185.20,3.657\n185.42,3.649\n185.64,3.638\n185.86,3.630\n186.08,3.619\n186.31,3.609\n186.53,3.600\n186.75,3.589\n186.98,3.581\n187.20,3.572\n187.42,3.562\n187.65,3.553\n187.88,3.543\n188.10,3.532\n188.33,3.522\n188.56,3.510\n188.79,3.498\n189.01,3.485\n189.24,3.475\n189.47,3.462\n189.70,3.451\n189.94,3.439\n190.17,3.422\n190.40,3.411\n190.63,3.398\n190.86,3.381\n191.10,3.369\n191.33,3.354\n191.57,3.339\n191.80,3.322\n192.04,3.307\n192.28,3.290\n192.51,3.271\n192.75,3.252\n192.99,3.237\n193.23,3.218\n193.47,3.199\n193.71,3.180\n193.95,3.158\n194.19,3.143\n194.43,3.122\n194.68,3.099\n194.92,3.075\n195.16,3.050\n195.41,3.027\n195.65,2.999\n195.90,2.980\n196.14,2.948\n196.39,2.922\n196.64,2.893\n196.89,2.863\n197.13,2.837\n197.39,2.810\n197.64,2.776\n197.89,2.746\n198.14,2.714\n198.39,2.685\n198.64,2.653\n198.90,2.623\n199.14,2.596\n199.40,2.563\n199.66,2.536\n199.91,2.502\n200.17,2.472\n200.43,2.438\n200.69,2.400\n200.94,2.364\n201.20,2.321\n201.46,2.277\n201.72,2.234\n201.99,2.187\n202.25,2.136\n202.51,2.090\n202.74,2.047\n203.04,1.996\n203.25,1.956\n203.57,1.905\n203.83,1.854\n204.06,1.812\n204.37,1.758\n204.63,1.701\n204.90,1.654\n205.17,1.601\n205.44,1.552\n205.71,1.514\n205.99,1.467\n206.26,1.416\n206.53,1.372\n206.81,1.314\n207.08,1.261\n207.35,1.215\n207.63,1.166\n207.91,1.115\n208.19,1.062\n208.46,1.019\n##END=\n'