b'##TITLE=Isoxazole, 3,5-dimethyl-\n##JCAMP-DX=4.24\n##DATA TYPE=UV/VIS SPECTRUM\n##ORIGIN=INSTITUTE OF ENERGY PROBLEMS OF CHEMICAL PHYSICS, RAS\n##OWNER=INEP CP RAS, NIST OSRD\nCollection (C) 2007 copyright by the U.S. Secretary of Commerce\non behalf of the United States of America. All rights reserved.\n##CAS REGISTRY NO=300-87-8\n##MOLFORM=C5H7NO\n##SOURCE REFERENCE=RAS UV No. 19850\n##$NIST SQUIB=1967TIMg3/3\n##$NIST SOURCE=TYUGLMTE\n##SPECTROMETER/DATA SYSTEM=Unicam SP 700\n##XUNITS=Wavelength (nm)\n##YUNITS=Logarithm epsilon\n##XFACTOR=1.0\n##YFACTOR=1.0\n##FIRSTX=196.59\n##LASTX=258.06\n##FIRSTY=3.615\n##MAXX=258.06\n##MINX=196.59\n##MAXY=3.803\n##MINY=1.009\n##NPOINTS=165\n##$REF AUTHOR=Timmons, C.J.\n##$REF JOURNAL=UV atlas of organic compounds\n##$REF VOLUME=3\n##$REF PAGE=G3/3\n##$REF DATE=1967\n##XYPOINTS=(XY..XY)\n196.59,3.615\n197.19,3.623\n197.78,3.631\n198.38,3.639\n198.99,3.647\n199.60,3.655\n200.21,3.663\n200.82,3.671\n201.44,3.680\n202.07,3.688\n202.69,3.696\n203.32,3.706\n203.96,3.714\n204.60,3.722\n205.24,3.730\n205.89,3.738\n206.54,3.746\n207.19,3.754\n207.95,3.762\n208.71,3.770\n209.47,3.776\n210.24,3.782\n211.02,3.789\n211.80,3.794\n212.69,3.797\n213.58,3.800\n214.48,3.803\n215.39,3.802\n216.31,3.798\n217.13,3.792\n217.96,3.784\n218.69,3.774\n219.42,3.765\n220.06,3.755\n220.59,3.744\n221.23,3.733\n221.76,3.722\n222.19,3.709\n222.74,3.698\n223.17,3.685\n223.50,3.672\n223.94,3.659\n224.26,3.647\n224.71,3.634\n225.04,3.621\n225.37,3.608\n225.70,3.595\n226.04,3.583\n226.37,3.568\n226.60,3.554\n226.94,3.539\n227.27,3.525\n227.50,3.511\n227.84,3.496\n228.07,3.482\n228.41,3.469\n228.64,3.455\n228.87,3.440\n229.21,3.426\n229.44,3.411\n229.79,3.399\n230.02,3.384\n230.25,3.370\n230.48,3.355\n230.71,3.341\n230.95,3.327\n231.18,3.312\n231.42,3.298\n231.65,3.283\n231.88,3.269\n232.12,3.255\n232.24,3.240\n232.47,3.226\n232.71,3.212\n232.95,3.197\n233.07,3.183\n233.30,3.168\n233.47,3.152\n233.73,3.131\n234.00,3.108\n234.35,3.074\n234.88,3.028\n235.36,2.984\n235.72,2.942\n236.20,2.893\n236.93,2.816\n237.18,2.786\n237.42,2.762\n237.67,2.732\n237.92,2.701\n238.17,2.676\n238.45,2.647\n238.71,2.616\n238.91,2.593\n239.16,2.562\n239.41,2.525\n239.66,2.490\n239.91,2.463\n240.17,2.437\n240.42,2.407\n240.67,2.378\n240.93,2.348\n241.18,2.317\n241.43,2.292\n241.69,2.260\n241.95,2.231\n242.20,2.209\n242.46,2.191\n242.72,2.164\n242.97,2.135\n243.23,2.110\n243.49,2.079\n243.75,2.050\n244.01,2.018\n244.27,1.994\n244.53,1.964\n244.80,1.935\n245.06,1.905\n245.32,1.874\n245.58,1.847\n245.85,1.822\n246.11,1.802\n246.38,1.780\n246.64,1.751\n246.91,1.724\n247.18,1.697\n247.44,1.667\n247.71,1.636\n247.98,1.611\n248.25,1.580\n248.52,1.551\n248.79,1.521\n249.06,1.489\n249.33,1.459\n249.61,1.431\n249.84,1.416\n250.07,1.393\n250.37,1.367\n250.70,1.340\n250.98,1.315\n251.25,1.287\n251.53,1.270\n251.81,1.247\n252.08,1.230\n252.36,1.212\n252.64,1.193\n252.92,1.180\n253.20,1.166\n253.48,1.152\n253.76,1.139\n254.04,1.128\n254.33,1.118\n254.61,1.107\n254.89,1.097\n255.18,1.086\n255.46,1.075\n255.75,1.072\n256.04,1.064\n256.32,1.056\n256.61,1.048\n256.90,1.040\n257.19,1.032\n257.48,1.024\n257.77,1.017\n258.06,1.009\n##END=\n'