b'##TITLE=DL-Serine\n##JCAMP-DX=4.24\n##DATA TYPE=UV/VIS SPECTRUM\n##ORIGIN=INSTITUTE OF ENERGY PROBLEMS OF CHEMICAL PHYSICS, RAS\n##OWNER=INEP CP RAS, NIST OSRD\nCollection (C) 2007 copyright by the U.S. Secretary of Commerce\non behalf of the United States of America. All rights reserved.\n##CAS REGISTRY NO=302-84-1\n##MOLFORM=C3H7NO3\n##MP=246 dec\n##SOURCE REFERENCE=RAS UV No. 10393\n##$NIST SQUIB=1952SAI/WAL285\n##$NIST SOURCE=TYUGLMTE\n##SPECTROMETER/DATA SYSTEM=Beckman DU\n##XUNITS=Wavelength (nm)\n##YUNITS=Logarithm epsilon\n##XFACTOR=1.0\n##YFACTOR=1.0\n##FIRSTX=200.68\n##LASTX=228.1\n##FIRSTY=2.051\n##MAXX=228.1\n##MINX=200.68\n##MAXY=2.051\n##MINY=0.773\n##NPOINTS=46\n##$REF AUTHOR=Saidel, L.J.; Waldman, S.\n##$REF JOURNAL=J. Biol. Chem\n##$REF VOLUME=197\n##$REF PAGE=285\n##$REF DATE=1952\n##XYPOINTS=(XY..XY)\n200.68,2.051\n201.09,2.040\n201.49,2.028\n201.76,2.018\n202.17,2.006\n202.58,1.993\n202.99,1.982\n203.39,1.969\n203.80,1.958\n204.07,1.946\n204.48,1.931\n204.89,1.919\n205.43,1.908\n205.70,1.888\n206.11,1.873\n206.52,1.859\n206.79,1.844\n207.19,1.828\n207.47,1.812\n207.87,1.794\n208.28,1.775\n208.69,1.753\n209.10,1.729\n209.50,1.711\n210.05,1.693\n210.45,1.671\n210.86,1.648\n211.40,1.626\n211.81,1.595\n212.22,1.567\n213.03,1.527\n213.44,1.499\n214.25,1.472\n214.80,1.439\n215.48,1.408\n216.15,1.370\n216.83,1.322\n217.78,1.294\n218.73,1.243\n220.77,1.171\n221.72,1.121\n222.67,1.074\n223.62,1.010\n225.79,0.893\n227.01,0.845\n228.10,0.773\n##END=\n'