b'##TITLE=Thiazole, 2-bromo-\n##JCAMP-DX=4.24\n##DATA TYPE=UV/VIS SPECTRUM\n##ORIGIN=INSTITUTE OF ENERGY PROBLEMS OF CHEMICAL PHYSICS, RAS\n##OWNER=INEP CP RAS, NIST OSRD\nCollection (C) 2007 copyright by the U.S. Secretary of Commerce\non behalf of the United States of America. All rights reserved.\n##CAS REGISTRY NO=3034-53-5\n##MOLFORM=C3H2BrNS\n##BP=171\n##SOURCE REFERENCE=RAS UV No. 20237\n##$NIST SQUIB=1969BOL/358\n##$NIST SOURCE=TYUGLMTE\n##SPECTROMETER/DATA SYSTEM=unknown\n##XUNITS=Wavelength (nm)\n##YUNITS=Logarithm epsilon\n##XFACTOR=1.0\n##YFACTOR=1.0\n##FIRSTX=226.37\n##LASTX=277.49\n##FIRSTY=3.434\n##MAXX=277.49\n##MINX=226.37\n##MAXY=3.71\n##MINY=2.978\n##NPOINTS=63\n##$REF AUTHOR=Bolshakov, G.F.; et al.\n##$REF JOURNAL=Ultraviolet Spectra of Heteroorganic Compounds\n##$REF PAGE=358\n##$REF DATE=1969\n##XYPOINTS=(XY..XY)\n226.37,3.434\n226.68,3.427\n227.21,3.417\n228.05,3.403\n228.81,3.392\n229.72,3.378\n230.56,3.366\n231.38,3.358\n232.24,3.356\n233.07,3.356\n233.91,3.361\n234.75,3.368\n235.59,3.380\n236.43,3.393\n237.31,3.411\n238.10,3.427\n238.94,3.444\n239.78,3.459\n240.62,3.476\n241.45,3.493\n242.29,3.512\n243.13,3.531\n243.97,3.547\n244.81,3.564\n245.64,3.581\n246.48,3.600\n247.32,3.615\n248.16,3.631\n248.93,3.644\n249.83,3.658\n250.67,3.670\n251.51,3.678\n252.35,3.685\n253.19,3.693\n254.02,3.697\n254.86,3.702\n255.70,3.707\n256.54,3.708\n257.38,3.710\n258.21,3.710\n259.05,3.710\n259.89,3.707\n260.76,3.702\n261.57,3.697\n262.40,3.688\n263.27,3.678\n264.08,3.664\n264.89,3.643\n265.76,3.619\n266.59,3.590\n267.43,3.558\n268.27,3.519\n269.11,3.485\n269.95,3.451\n270.66,3.415\n271.62,3.368\n272.46,3.325\n273.15,3.287\n274.06,3.232\n274.97,3.171\n275.81,3.110\n276.65,3.044\n277.49,2.978\n##END=\n'