b'##TITLE=1,2,4-triazolo[3,4,-b][1,3,4]thiadiazole-3,6(2H,5H)-dithione\n##JCAMP-DX=4.24\n##DATA TYPE=UV/VIS SPECTRUM\n##ORIGIN=INSTITUTE OF ENERGY PROBLEMS OF CHEMICAL PHYSICS, RAS\n##OWNER=INEP CP RAS, NIST OSRD\nCollection (C) 2007 copyright by the U.S. Secretary of Commerce\non behalf of the United States of America. All rights reserved.\n##CAS REGISTRY NO=30843-85-7\n##MOLFORM=C3H2N4S3\n##MP=193\n##SOURCE REFERENCE=RAS UV No. 23457\n##$NIST SQUIB=1975KOV/349\n##$NIST SOURCE=TYUGLMTE\n##SPECTROMETER/DATA SYSTEM=SF-4\n##XUNITS=Wavelength (nm)\n##YUNITS=Logarithm epsilon\n##XFACTOR=1.0\n##YFACTOR=1.0\n##FIRSTX=233.928\n##LASTX=347.463\n##FIRSTY=3.927\n##MAXX=347.463\n##MINX=233.928\n##MAXY=4.141\n##MINY=3.354\n##NPOINTS=118\n##$REF AUTHOR=Kovolyov, Ye.G.; et al.\n##$REF JOURNAL=Khim. Geterosikl. Soedin.\n##$REF PAGE=349\n##$REF DATE=1975\n##XYPOINTS=(XY..XY)\n233.928,3.927\n234.928,3.960\n235.928,3.991\n236.928,4.021\n237.928,4.047\n238.928,4.070\n239.928,4.090\n240.928,4.105\n241.928,4.117\n242.928,4.126\n243.928,4.132\n244.928,4.136\n245.928,4.139\n246.928,4.140\n247.928,4.141\n248.928,4.141\n249.928,4.140\n250.928,4.140\n251.928,4.140\n252.928,4.139\n253.928,4.138\n254.928,4.136\n255.928,4.133\n256.928,4.128\n257.928,4.122\n258.928,4.114\n258.935,4.113\n259.935,4.103\n260.935,4.089\n261.935,4.072\n262.935,4.052\n263.935,4.031\n264.935,4.008\n265.935,3.986\n266.935,3.963\n267.935,3.941\n268.935,3.920\n269.935,3.900\n270.935,3.880\n271.935,3.861\n272.935,3.842\n273.935,3.822\n274.935,3.803\n275.935,3.783\n276.935,3.763\n277.935,3.745\n278.935,3.729\n279.014,3.728\n280.014,3.716\n281.014,3.706\n282.014,3.698\n283.014,3.694\n284.014,3.691\n285.014,3.689\n286.014,3.689\n287.014,3.690\n288.014,3.692\n289.014,3.695\n290.014,3.699\n291.014,3.704\n292.014,3.709\n293.014,3.715\n294.014,3.721\n295.014,3.728\n296.014,3.735\n297.014,3.743\n298.014,3.751\n299.014,3.759\n299.092,3.757\n300.092,3.768\n301.092,3.777\n302.092,3.785\n303.092,3.791\n304.092,3.797\n305.092,3.803\n306.092,3.808\n307.092,3.814\n308.092,3.820\n309.092,3.825\n310.092,3.830\n311.092,3.835\n312.092,3.838\n313.092,3.841\n314.092,3.843\n315.092,3.844\n316.092,3.843\n317.092,3.841\n318.092,3.837\n319.092,3.831\n320.092,3.823\n321.092,3.813\n322.092,3.803\n323.004,3.789\n324.004,3.779\n325.004,3.767\n326.004,3.754\n327.004,3.740\n328.004,3.725\n329.004,3.710\n330.004,3.694\n331.004,3.677\n332.004,3.660\n333.004,3.642\n334.004,3.623\n335.004,3.604\n336.004,3.585\n337.004,3.565\n338.004,3.546\n339.004,3.526\n340.004,3.506\n341.004,3.485\n342.004,3.465\n343.004,3.445\n344.004,3.425\n345.004,3.406\n346.004,3.386\n347.004,3.367\n347.463,3.354\n##END=\n'