b'##TITLE=Pyrimidine,2-fluoro-\n##JCAMP-DX=4.24\n##DATA TYPE=UV/VIS SPECTRUM\n##ORIGIN=INSTITUTE OF ENERGY PROBLEMS OF CHEMICAL PHYSICS, RAS\n##OWNER=INEP CP RAS, NIST OSRD\nCollection (C) 2007 copyright by the U.S. Secretary of Commerce\non behalf of the United States of America. All rights reserved.\n##CAS REGISTRY NO=31575-35-6\n##MOLFORM=C4H3FN2\n##BP=88-90/ 140 mm\n##SOURCE REFERENCE=RAS UV No. 18933\n##$NIST SQUIB=1975KOP18\n##$NIST SOURCE=TYUGLMTE\n##SPECTROMETER/DATA SYSTEM=SF-16\n##XUNITS=Wavelength (nm)\n##YUNITS=Logarithm epsilon\n##XFACTOR=1.0\n##YFACTOR=1.0\n##FIRSTX=211.52\n##LASTX=296.51\n##FIRSTY=2.092\n##MAXX=296.51\n##MINX=211.52\n##MAXY=3.539\n##MINY=2.013\n##NPOINTS=57\n##$REF AUTHOR=(editor), Koptyug V.A.\n##$REF JOURNAL=Atlas of Spectra of Aromatic and Heterocyclic Compounds\n##$REF VOLUME=8\n##$REF PAGE=18\n##$REF DATE=1975\n##XYPOINTS=(XY..XY)\n211.52,2.092\n217.29,2.305\n218.73,2.417\n220.17,2.500\n221.61,2.616\n223.05,2.676\n224.49,2.723\n225.93,2.792\n227.37,2.881\n228.81,2.955\n230.25,3.029\n231.69,3.098\n233.13,3.163\n234.57,3.210\n236.01,3.265\n237.45,3.321\n238.89,3.400\n240.33,3.437\n241.77,3.474\n243.21,3.493\n244.65,3.520\n246.10,3.539\n247.54,3.534\n248.98,3.511\n250.42,3.483\n251.86,3.456\n253.30,3.405\n254.74,3.289\n256.18,3.108\n257.62,2.876\n259.06,2.778\n260.50,2.714\n261.94,2.667\n263.38,2.639\n264.82,2.625\n266.26,2.616\n267.70,2.612\n269.14,2.612\n270.58,2.607\n272.02,2.602\n273.46,2.598\n274.90,2.593\n276.35,2.579\n277.79,2.565\n279.23,2.542\n280.67,2.519\n282.11,2.491\n283.55,2.449\n284.99,2.412\n286.43,2.370\n287.87,2.324\n289.31,2.282\n290.75,2.231\n292.19,2.194\n293.63,2.120\n295.07,2.055\n296.51,2.013\n##END=\n'