b'##TITLE=Benzene, 1,3,5-trichloro-2,4,6-trifluoro-\n##JCAMP-DX=4.24\n##DATA TYPE=UV/VIS SPECTRUM\n##ORIGIN=INSTITUTE OF ENERGY PROBLEMS OF CHEMICAL PHYSICS, RAS\n##OWNER=INEP CP RAS, NIST OSRD\nCollection (C) 2007 copyright by the U.S. Secretary of Commerce\non behalf of the United States of America. All rights reserved.\n##CAS REGISTRY NO=319-88-0\n##MOLFORM=C6Cl3F3\n##MP=62.2-63.0\n##SOURCE REFERENCE=RAS UV No. 18954\n##$NIST SQUIB=1967KOP21\n##$NIST SOURCE=TYUGLMTE\n##SPECTROMETER/DATA SYSTEM=SFD-2\n##XUNITS=Wavelength (nm)\n##YUNITS=Logarithm epsilon\n##XFACTOR=1.0\n##YFACTOR=1.0\n##FIRSTX=221.77\n##LASTX=279.84\n##FIRSTY=3.771\n##MAXX=279.84\n##MINX=221.77\n##MAXY=3.771\n##MINY=2.283\n##NPOINTS=39\n##$REF AUTHOR=(editor), Koptyug V.A.\n##$REF JOURNAL=Atlas of Spectra of Aromatic and Heterocyclic Compounds\n##$REF VOLUME=1\n##$REF PAGE=21\n##$REF DATE=1967\n##XYPOINTS=(XY..XY)\n221.77,3.771\n222.26,3.726\n222.74,3.681\n223.23,3.637\n223.71,3.592\n224.68,3.547\n225.65,3.502\n227.10,3.462\n228.55,3.418\n230.48,3.378\n232.90,3.343\n235.81,3.308\n238.71,3.273\n240.65,3.233\n242.10,3.194\n243.06,3.149\n244.03,3.104\n245.00,3.059\n245.48,3.014\n246.45,2.970\n247.42,2.925\n247.90,2.880\n248.87,2.835\n249.84,2.790\n250.32,2.746\n250.81,2.701\n251.29,2.656\n252.26,2.611\n252.74,2.567\n253.71,2.522\n255.16,2.482\n257.10,2.442\n259.52,2.407\n263.39,2.382\n267.74,2.382\n272.10,2.387\n275.97,2.362\n277.90,2.323\n279.84,2.283\n##END=\n'