b'##TITLE=1-Chloro-1,2-propadiene\n##JCAMP-DX=4.24\n##DATA TYPE=UV/VIS SPECTRUM\n##ORIGIN=INSTITUTE OF ENERGY PROBLEMS OF CHEMICAL PHYSICS, RAS\n##OWNER=INEP CP RAS, NIST OSRD\nCollection (C) 2007 copyright by the U.S. Secretary of Commerce\non behalf of the United States of America. All rights reserved.\n##CAS REGISTRY NO=3223-70-9\n##MOLFORM=C3H3Cl\n##BP=44\n##SOURCE REFERENCE=RAS UV No. 22644\n##$NIST SQUIB=1977KRO/826\n##$NIST SOURCE=TYUGLMTE\n##SPECTROMETER/DATA SYSTEM=Zeiss PMQ II\n##XUNITS=Wavelength (nm)\n##YUNITS=Logarithm epsilon\n##XFACTOR=1.0\n##YFACTOR=1.0\n##FIRSTX=202.325\n##LASTX=280.457\n##FIRSTY=3.257\n##MAXX=280.457\n##MINX=202.325\n##MAXY=3.257\n##MINY=0.7\n##NPOINTS=54\n##$REF AUTHOR=Kroner, J.; et al.\n##$REF JOURNAL=Ber. Bunsenges. phys. Chem.\n##$REF VOLUME=81\n##$REF PAGE=826\n##$REF DATE=1977\n##XYPOINTS=(XY..XY)\n202.325,3.257\n203.825,3.168\n205.325,3.061\n206.825,2.939\n208.325,2.806\n209.825,2.666\n211.325,2.522\n212.825,2.378\n214.325,2.237\n215.825,2.102\n217.325,1.977\n218.825,1.864\n220.325,1.766\n221.825,1.685\n223.325,1.621\n224.825,1.576\n226.325,1.549\n227.825,1.541\n229.325,1.548\n230.825,1.570\n232.325,1.602\n233.825,1.640\n235.325,1.678\n236.825,1.711\n238.416,1.743\n239.916,1.768\n241.416,1.794\n242.916,1.819\n244.416,1.843\n245.916,1.862\n247.416,1.878\n248.916,1.888\n250.416,1.894\n251.916,1.893\n253.416,1.887\n254.916,1.875\n256.416,1.856\n257.916,1.832\n259.416,1.800\n260.916,1.761\n262.416,1.715\n263.916,1.662\n265.416,1.601\n266.916,1.532\n268.416,1.455\n269.916,1.371\n271.416,1.280\n272.916,1.185\n274.416,1.087\n275.916,0.989\n275.957,0.986\n277.457,0.889\n278.957,0.792\n280.457,0.700\n##END=\n'