b'##TITLE=Oxalacetic acid\n##JCAMP-DX=4.24\n##DATA TYPE=UV/VIS SPECTRUM\n##ORIGIN=INSTITUTE OF ENERGY PROBLEMS OF CHEMICAL PHYSICS, RAS\n##OWNER=INEP CP RAS, NIST OSRD\nCollection (C) 2007 copyright by the U.S. Secretary of Commerce\non behalf of the United States of America. All rights reserved.\n##CAS REGISTRY NO=328-42-7\n##MOLFORM=C4H4O5\n##MP=142 dec.\n##SOURCE REFERENCE=RAS UV No. 16209\n##$NIST SQUIB=1972HES/REE226\n##$NIST SOURCE=TYUGLMTE\n##SPECTROMETER/DATA SYSTEM=Unicam SP 800\n##XUNITS=Wavelength (nm)\n##YUNITS=Logarithm epsilon\n##XFACTOR=1.0\n##YFACTOR=1.0\n##FIRSTX=221.96\n##LASTX=298.88\n##FIRSTY=3.236\n##MAXX=298.88\n##MINX=221.96\n##MAXY=3.962\n##MINY=2.803\n##NPOINTS=144\n##$REF AUTHOR=Hess, J.L.; Reed, R.E.\n##$REF JOURNAL=Arch. Biochem. Biophys.\n##$REF VOLUME=153\n##$REF PAGE=226\n##$REF DATE=1972\n##XYPOINTS=(XY..XY)\n221.96,3.236\n222.95,3.250\n223.95,3.268\n224.82,3.285\n225.69,3.302\n226.43,3.321\n227.30,3.336\n228.30,3.350\n229.04,3.370\n229.79,3.386\n230.66,3.402\n231.53,3.417\n232.15,3.434\n232.89,3.448\n233.52,3.464\n234.14,3.479\n234.76,3.494\n235.38,3.510\n236.00,3.524\n236.62,3.537\n237.12,3.552\n237.49,3.566\n237.99,3.580\n238.49,3.593\n238.86,3.606\n239.48,3.619\n239.85,3.631\n240.23,3.643\n240.60,3.655\n241.10,3.666\n241.47,3.677\n241.97,3.688\n242.34,3.698\n242.71,3.708\n243.08,3.718\n243.46,3.729\n243.83,3.739\n244.33,3.748\n244.70,3.758\n245.07,3.768\n245.45,3.777\n245.82,3.787\n246.19,3.795\n246.56,3.803\n246.94,3.811\n247.31,3.819\n247.68,3.827\n248.06,3.836\n248.43,3.843\n248.93,3.850\n249.30,3.858\n249.67,3.865\n250.04,3.872\n250.42,3.879\n250.79,3.885\n251.41,3.891\n251.78,3.898\n252.28,3.904\n252.78,3.911\n253.27,3.917\n253.77,3.923\n254.39,3.929\n255.01,3.935\n255.64,3.940\n256.26,3.945\n257.13,3.949\n258.00,3.953\n258.99,3.957\n260.11,3.959\n261.23,3.961\n262.35,3.962\n263.46,3.961\n264.46,3.959\n265.45,3.957\n266.45,3.953\n267.32,3.949\n268.06,3.945\n268.81,3.941\n269.55,3.936\n270.18,3.930\n270.67,3.924\n271.29,3.918\n271.79,3.912\n272.29,3.905\n272.79,3.899\n273.28,3.892\n273.65,3.885\n274.15,3.879\n274.52,3.872\n275.02,3.865\n275.52,3.858\n275.89,3.850\n276.26,3.842\n276.76,3.835\n277.13,3.827\n277.51,3.819\n278.00,3.811\n278.38,3.802\n278.63,3.793\n279.12,3.785\n279.50,3.776\n279.87,3.767\n280.24,3.758\n280.61,3.748\n280.99,3.738\n281.36,3.728\n281.73,3.717\n282.11,3.706\n282.48,3.694\n282.85,3.682\n283.22,3.670\n283.60,3.658\n283.97,3.644\n284.34,3.631\n284.71,3.619\n285.09,3.605\n285.34,3.590\n285.71,3.575\n286.21,3.561\n286.58,3.545\n286.95,3.528\n287.32,3.510\n287.70,3.492\n288.19,3.475\n288.57,3.455\n289.06,3.436\n289.44,3.414\n289.81,3.392\n290.18,3.370\n290.68,3.347\n291.05,3.321\n291.55,3.295\n292.05,3.268\n292.54,3.239\n293.04,3.208\n293.66,3.175\n294.28,3.139\n294.90,3.100\n295.53,3.063\n296.15,3.022\n296.77,2.970\n297.39,2.918\n298.14,2.869\n298.88,2.803\n##END=\n'