b'##TITLE=Methane, diazo-\n##JCAMP-DX=4.24\n##DATA TYPE=UV/VIS SPECTRUM\n##ORIGIN=INSTITUTE OF ENERGY PROBLEMS OF CHEMICAL PHYSICS, RAS\n##OWNER=INEP CP RAS, NIST OSRD\nCollection (C) 2007 copyright by the U.S. Secretary of Commerce\non behalf of the United States of America. All rights reserved.\n##CAS REGISTRY NO=334-88-3\n##MOLFORM=CH2N2\n##MP=- 145\n##BP=- 23\n##SOURCE REFERENCE=RAS UV No. 9226\n##$NIST SQUIB=1951BRI/VOL1394\n##$NIST SOURCE=TYUGLMTE\n##SPECTROMETER/DATA SYSTEM=Bausch and Lomb large litlrow spectrograph\n##XUNITS=Wavelength (nm)\n##YUNITS=Logarithm epsilon\n##XFACTOR=1.0\n##YFACTOR=1.0\n##FIRSTX=257.95\n##LASTX=278.11\n##FIRSTY=0.828\n##MAXX=278.11\n##MINX=257.95\n##MAXY=0.828\n##MINY=-0.405\n##NPOINTS=59\n##$REF AUTHOR=Brinton, R.K.; Volman, D.H.\n##$REF JOURNAL=J. Chem. Phys.\n##$REF VOLUME=19\n##$REF PAGE=1394\n##$REF DATE=1951\n##XYPOINTS=(XY..XY)\n257.95,0.828\n258.04,0.823\n258.13,0.820\n258.22,0.814\n258.30,0.809\n258.40,0.803\n258.62,0.790\n258.81,0.776\n259.04,0.760\n259.18,0.750\n259.32,0.741\n259.41,0.731\n259.55,0.719\n259.68,0.710\n259.78,0.701\n259.85,0.695\n259.96,0.684\n260.15,0.668\n260.23,0.660\n260.36,0.649\n260.52,0.635\n260.70,0.620\n260.79,0.611\n260.93,0.597\n261.07,0.580\n261.16,0.571\n261.27,0.560\n261.44,0.545\n261.61,0.527\n261.78,0.511\n262.00,0.491\n262.22,0.472\n262.50,0.451\n262.76,0.431\n263.00,0.412\n263.30,0.391\n263.65,0.366\n264.06,0.337\n264.27,0.320\n264.66,0.294\n265.04,0.266\n265.44,0.238\n266.00,0.204\n266.58,0.170\n267.16,0.132\n267.75,0.092\n268.53,0.052\n269.52,0.008\n270.32,-0.041\n270.88,-0.070\n271.39,-0.097\n271.96,-0.123\n272.53,-0.152\n273.77,-0.211\n274.47,-0.243\n275.19,-0.276\n275.86,-0.304\n276.64,-0.336\n278.11,-0.405\n##END=\n'