b'##TITLE=Trifluoronitrosomethane\n##JCAMP-DX=4.24\n##DATA TYPE=UV/VIS SPECTRUM\n##ORIGIN=INSTITUTE OF ENERGY PROBLEMS OF CHEMICAL PHYSICS, RAS\n##OWNER=INEP CP RAS, NIST OSRD\nCollection (C) 2007 copyright by the U.S. Secretary of Commerce\non behalf of the United States of America. All rights reserved.\n##CAS REGISTRY NO=334-99-6\n##MOLFORM=CF3NO\n##MP=121.5\n##BP=315\n##SOURCE REFERENCE=RAS UV No. 12500\n##$NIST SQUIB=1957MAS3904\n##$NIST SOURCE=TYUGLMTE\n##SPECTROMETER/DATA SYSTEM=Cary recording spectrophotometer\n##XUNITS=Wavelength (nm)\n##YUNITS=Logarithm epsilon\n##XFACTOR=1.0\n##YFACTOR=1.0\n##FIRSTX=506.51\n##LASTX=754.7\n##FIRSTY=0.082\n##MAXX=754.7\n##MINX=506.51\n##MAXY=1.344\n##MINY=0.033\n##NPOINTS=155\n##$REF AUTHOR=Mason, J.\n##$REF JOURNAL=J. Chem. Soc.\n##$REF PAGE=3904\n##$REF DATE=1957\n##XYPOINTS=(XY..XY)\n506.51,0.082\n508.87,0.104\n511.64,0.128\n514.15,0.153\n516.72,0.176\n519.24,0.203\n521.65,0.228\n524.11,0.253\n526.60,0.278\n529.16,0.305\n531.70,0.325\n534.25,0.348\n536.51,0.367\n539.05,0.391\n541.59,0.414\n543.86,0.434\n546.13,0.458\n548.63,0.487\n550.66,0.510\n552.92,0.538\n554.90,0.565\n556.88,0.594\n558.86,0.617\n560.84,0.639\n563.11,0.660\n565.37,0.680\n567.38,0.697\n569.33,0.722\n571.03,0.742\n572.73,0.762\n574.31,0.785\n575.84,0.805\n577.26,0.826\n578.96,0.842\n580.94,0.858\n582.63,0.873\n584.62,0.886\n586.31,0.902\n588.29,0.916\n589.99,0.932\n591.41,0.947\n593.11,0.962\n594.52,0.978\n596.22,0.991\n597.63,1.006\n599.05,1.021\n600.18,1.035\n601.60,1.047\n602.73,1.060\n604.14,1.073\n605.56,1.084\n606.97,1.095\n608.67,1.104\n610.65,1.111\n612.63,1.118\n614.61,1.127\n616.31,1.136\n618.01,1.144\n619.42,1.154\n621.12,1.162\n622.54,1.171\n623.95,1.179\n625.37,1.188\n626.78,1.196\n628.48,1.203\n630.46,1.210\n632.44,1.217\n634.71,1.222\n636.69,1.227\n638.67,1.233\n640.65,1.239\n642.35,1.246\n644.33,1.252\n646.03,1.259\n647.44,1.266\n648.86,1.273\n650.27,1.281\n651.97,1.287\n653.67,1.292\n655.36,1.298\n657.06,1.305\n659.04,1.310\n661.02,1.316\n663.01,1.320\n664.99,1.325\n666.97,1.330\n668.95,1.334\n671.21,1.339\n673.48,1.342\n676.02,1.342\n678.29,1.339\n680.83,1.339\n683.38,1.339\n685.93,1.340\n688.19,1.344\n690.74,1.344\n693.00,1.340\n694.70,1.334\n696.12,1.327\n697.53,1.320\n698.66,1.313\n699.80,1.306\n700.93,1.298\n701.78,1.290\n702.63,1.282\n703.76,1.274\n704.89,1.266\n706.02,1.257\n706.87,1.248\n708.00,1.239\n709.13,1.231\n709.98,1.222\n711.40,1.213\n712.53,1.203\n713.66,1.194\n714.79,1.184\n716.21,1.176\n717.34,1.165\n718.64,1.157\n720.17,1.146\n721.31,1.136\n722.44,1.124\n723.28,1.111\n724.42,1.099\n725.27,1.085\n726.11,1.071\n726.96,1.057\n727.81,1.042\n728.66,1.026\n729.51,1.010\n730.08,0.993\n730.92,0.976\n731.77,0.957\n732.34,0.938\n732.91,0.919\n733.75,0.898\n734.60,0.876\n735.17,0.853\n736.02,0.828\n736.87,0.803\n737.72,0.775\n738.57,0.746\n739.41,0.714\n740.26,0.680\n741.11,0.644\n741.96,0.608\n743.09,0.570\n743.94,0.522\n745.07,0.474\n746.49,0.420\n747.90,0.359\n749.60,0.298\n751.02,0.215\n753.00,0.140\n754.70,0.033\n##END=\n'