b'##TITLE=Pyrimidine, 4-methyl-\n##JCAMP-DX=4.24\n##DATA TYPE=UV/VIS SPECTRUM\n##ORIGIN=INSTITUTE OF ENERGY PROBLEMS OF CHEMICAL PHYSICS, RAS\n##OWNER=INEP CP RAS, NIST OSRD\nCollection (C) 2007 copyright by the U.S. Secretary of Commerce\non behalf of the United States of America. All rights reserved.\n##CAS REGISTRY NO=3438-46-8\n##MOLFORM=C5H6N2\n##MP=32\n##BP=142\n##SOURCE REFERENCE=RAS UV No. 10970\n##$NIST SQUIB=1951MAR/WAL1004\n##$NIST SOURCE=TYUGLMTE\n##SPECTROMETER/DATA SYSTEM=n.i.g.\n##XUNITS=Wavelength (nm)\n##YUNITS=Logarithm epsilon\n##XFACTOR=1.0\n##YFACTOR=1.0\n##FIRSTX=208.15\n##LASTX=294.42\n##FIRSTY=3.382\n##MAXX=294.42\n##MINX=208.15\n##MAXY=3.685\n##MINY=1.372\n##NPOINTS=56\n##$REF AUTHOR=Marshall, J.R.; Walker, J.\n##$REF JOURNAL=J. Chem. Soc.\n##$REF PAGE=1004\n##$REF DATE=1951\n##XYPOINTS=(XY..XY)\n208.15,3.382\n208.40,3.366\n208.67,3.349\n209.06,3.327\n209.42,3.306\n209.92,3.278\n210.49,3.242\n211.26,3.195\n212.02,3.161\n213.73,3.106\n215.45,3.072\n217.17,3.051\n218.88,3.037\n220.60,3.037\n222.32,3.058\n224.03,3.127\n225.75,3.196\n227.47,3.265\n229.08,3.332\n230.90,3.402\n232.59,3.456\n234.33,3.506\n236.71,3.575\n239.48,3.636\n241.20,3.657\n242.93,3.677\n244.64,3.685\n246.21,3.668\n248.02,3.629\n249.79,3.588\n251.35,3.538\n253.22,3.456\n254.94,3.340\n256.65,3.203\n258.37,3.058\n260.09,2.914\n261.80,2.783\n263.52,2.693\n265.24,2.597\n266.95,2.528\n268.67,2.459\n270.34,2.406\n272.10,2.342\n273.80,2.274\n275.54,2.191\n277.25,2.122\n279.02,2.040\n280.69,1.977\n282.40,1.915\n284.12,1.840\n285.89,1.764\n287.55,1.702\n289.27,1.626\n290.99,1.537\n292.70,1.454\n294.42,1.372\n##END=\n'