b'##TITLE=Benzene, chloropentafluoro-\n##JCAMP-DX=4.24\n##DATA TYPE=UV/VIS SPECTRUM\n##ORIGIN=INSTITUTE OF ENERGY PROBLEMS OF CHEMICAL PHYSICS, RAS\n##OWNER=INEP CP RAS, NIST OSRD\nCollection (C) 2007 copyright by the U.S. Secretary of Commerce\non behalf of the United States of America. All rights reserved.\n##CAS REGISTRY NO=344-07-0\n##MOLFORM=C6ClF5\n##BP=117.0\n##SOURCE REFERENCE=RAS UV No. 18952\n##$NIST SQUIB=1967KOP17\n##$NIST SOURCE=TYUGLMTE\n##SPECTROMETER/DATA SYSTEM=SFD-2\n##XUNITS=Wavelength (nm)\n##YUNITS=Logarithm epsilon\n##XFACTOR=1.0\n##YFACTOR=1.0\n##FIRSTX=220.68\n##LASTX=284.25\n##FIRSTY=3.017\n##MAXX=284.25\n##MINX=220.68\n##MAXY=3.057\n##MINY=1.599\n##NPOINTS=48\n##$REF AUTHOR=(editor), Koptyug V.A.\n##$REF JOURNAL=Atlas of Spectra of Aromatic and Heterocyclic Compounds\n##$REF VOLUME=1\n##$REF PAGE=17\n##$REF DATE=1967\n##XYPOINTS=(XY..XY)\n220.68,3.017\n221.19,3.017\n221.69,3.017\n222.20,3.017\n223.71,3.017\n224.22,3.017\n224.72,3.017\n225.22,3.017\n225.73,3.017\n226.74,3.012\n228.25,3.027\n229.76,3.037\n231.28,3.047\n232.79,3.052\n234.31,3.057\n235.82,3.047\n237.33,3.037\n238.85,2.987\n240.36,2.938\n241.87,2.888\n243.39,2.793\n244.90,2.714\n246.41,2.659\n247.93,2.609\n249.44,2.569\n250.95,2.534\n252.47,2.519\n253.98,2.510\n255.49,2.510\n257.01,2.510\n258.52,2.524\n260.03,2.534\n261.55,2.549\n263.06,2.554\n264.57,2.554\n266.09,2.554\n267.60,2.544\n269.12,2.534\n270.63,2.510\n272.14,2.460\n273.66,2.370\n275.17,2.241\n276.68,2.146\n278.20,2.042\n279.71,1.862\n281.22,1.768\n282.74,1.688\n284.25,1.599\n##END=\n'