b'##TITLE=Benzene, bromopentafluoro-\n##JCAMP-DX=4.24\n##DATA TYPE=UV/VIS SPECTRUM\n##ORIGIN=INSTITUTE OF ENERGY PROBLEMS OF CHEMICAL PHYSICS, RAS\n##OWNER=INEP CP RAS, NIST OSRD\nCollection (C) 2007 copyright by the U.S. Secretary of Commerce\non behalf of the United States of America. All rights reserved.\n##CAS REGISTRY NO=344-04-7\n##MOLFORM=C6BrF5\n##BP=134.5-135.0\n##SOURCE REFERENCE=RAS UV No. 18951\n##$NIST SQUIB=1967KOP18\n##$NIST SOURCE=TYUGLMTE\n##SPECTROMETER/DATA SYSTEM=SFD-2\n##XUNITS=Wavelength (nm)\n##YUNITS=Logarithm epsilon\n##XFACTOR=1.0\n##YFACTOR=1.0\n##FIRSTX=220.84\n##LASTX=287.93\n##FIRSTY=3.292\n##MAXX=287.93\n##MINX=220.84\n##MAXY=3.292\n##MINY=1.726\n##NPOINTS=67\n##$REF AUTHOR=(editor), Koptyug V.A.\n##$REF JOURNAL=Atlas of Spectra of Aromatic and Heterocyclic Compounds\n##$REF VOLUME=1\n##$REF PAGE=18\n##$REF DATE=1967\n##XYPOINTS=(XY..XY)\n220.84,3.292\n221.35,3.292\n221.86,3.287\n222.87,3.227\n223.89,3.173\n224.90,3.123\n225.92,3.079\n226.94,3.034\n227.95,3.005\n228.97,2.990\n229.99,2.985\n231.00,2.975\n232.02,2.975\n233.04,2.980\n234.05,2.985\n235.07,2.995\n236.09,3.009\n237.10,3.014\n238.12,3.024\n239.14,3.034\n240.15,3.034\n241.17,3.039\n242.19,3.034\n243.20,3.029\n244.22,3.019\n245.24,3.014\n246.25,3.005\n247.27,2.995\n248.29,2.980\n249.30,2.965\n250.32,2.940\n251.33,2.920\n252.35,2.905\n253.37,2.891\n254.38,2.866\n255.40,2.856\n256.42,2.846\n257.43,2.831\n258.45,2.821\n260.48,2.806\n261.50,2.801\n262.52,2.796\n263.53,2.786\n264.55,2.782\n265.57,2.767\n266.58,2.757\n267.60,2.742\n268.62,2.722\n269.63,2.712\n270.65,2.687\n271.67,2.677\n272.68,2.658\n273.70,2.633\n274.71,2.593\n275.73,2.564\n276.75,2.474\n277.76,2.390\n278.78,2.331\n279.80,2.266\n280.81,2.192\n281.83,2.118\n282.85,2.028\n283.86,1.974\n284.88,1.905\n285.90,1.840\n286.91,1.781\n287.93,1.726\n##END=\n'