b'##TITLE=Diethyl sulfide\n##JCAMP-DX=4.24\n##DATA TYPE=UV/VIS SPECTRUM\n##ORIGIN=INSTITUTE OF ENERGY PROBLEMS OF CHEMICAL PHYSICS, RAS\n##OWNER=INEP CP RAS, NIST OSRD\nCollection (C) 2007 copyright by the U.S. Secretary of Commerce\non behalf of the United States of America. All rights reserved.\n##CAS REGISTRY NO=352-93-2\n##MOLFORM=C4H10S\n##MP=-103.9\n##BP=92.1\n##SOURCE REFERENCE=RAS UV No. 3281\n##$NIST SQUIB=1949FEH/CAR84-93\n##$NIST SOURCE=TSGMTE\n##SPECTROMETER/DATA SYSTEM=Beckman DU\n##XUNITS=Wavelength (nm)\n##YUNITS=Logarithm epsilon\n##XFACTOR=1.000000\n##YFACTOR=1.000000\n##FIRSTX=207.5250\n##LASTX=252.6772\n##FIRSTY=3.2439\n##MAXX=252.677\n##MINX=207.525\n##MAXY=3.42483\n##MINY=0.138271\n##NPOINTS=124\n##$REF AUTHOR=Fehnel, E.A.; Carmack, M.\n##$REF TITLE=The ultraviolet absorption spectra of organic sulfur compounds. I. Compounds containing the sulfide function\n##$REF JOURNAL=J. Am. Chem. Soc.\n##$REF VOLUME=71\n##$REF PAGE=84-93\n##$REF DATE=1949\n##XYPOINTS=(XY..XY)\n207.5250,3.243897\n207.9453,3.267008\n208.3710,3.290008\n208.8074,3.312789\n209.5675,3.335883\n210.0658,3.353581\n210.5749,3.371278\n211.0894,3.388974\n212.3637,3.424835\n214.1764,3.417449\n215.5729,3.387966\n216.6840,3.348065\n217.6403,3.309429\n218.4095,3.270896\n219.0635,3.229271\n219.7282,3.187425\n220.3983,3.145469\n220.8769,3.112389\n220.9838,3.096529\n221.3949,3.064094\n222.2343,2.991956\n222.6155,2.958886\n222.8650,2.921885\n223.3677,2.880914\n223.7296,2.838971\n223.8418,2.800505\n224.2063,2.765519\n224.6349,2.727240\n224.8298,2.662361\n224.8361,2.687997\n224.8607,2.659893\n224.9025,2.657424\n224.9496,2.654954\n225.3089,2.631746\n225.4579,2.589058\n225.6411,2.553269\n225.7897,2.508937\n226.2919,2.473389\n226.5075,2.426550\n226.8039,2.378497\n227.2787,2.330316\n227.5132,2.294302\n227.5437,2.290209\n227.5850,2.285895\n227.6317,2.281472\n227.7502,2.268641\n227.8574,2.221119\n228.1935,2.180366\n228.7369,2.125568\n228.7369,2.125568\n228.7382,2.130498\n228.8092,2.119006\n228.8869,2.112223\n228.9387,2.124909\n228.9753,2.105330\n229.0875,2.066864\n229.1368,2.069671\n229.1512,2.124029\n229.1861,2.072259\n229.2354,2.074737\n229.3690,2.123039\n229.3690,2.123039\n229.4586,1.992875\n229.4888,2.115486\n229.6086,2.107713\n229.6256,1.979400\n229.7283,2.099831\n229.7926,1.965707\n229.9595,1.951904\n230.4592,1.906003\n230.6057,1.878854\n230.7630,1.851595\n230.9257,1.824115\n231.1896,1.808806\n231.2606,1.796947\n231.3370,1.784980\n231.4241,1.772792\n231.6854,1.747129\n231.9994,1.708131\n232.3241,1.669022\n232.6542,1.629694\n232.8912,1.604033\n233.3126,1.554689\n233.5982,1.525080\n233.7646,1.494495\n234.1201,1.456004\n234.3337,1.445101\n234.5918,1.417209\n235.1156,1.348428\n235.3528,1.323260\n235.7164,1.288218\n236.0908,1.253178\n236.4706,1.218134\n236.8518,1.185063\n237.2596,1.132180\n237.5706,1.103078\n237.8230,1.077488\n238.3265,1.046870\n238.8105,1.006889\n239.3054,0.966906\n239.8056,0.926918\n240.0664,0.898791\n240.5502,0.857821\n241.0448,0.816851\n241.5448,0.775880\n242.2891,0.734888\n242.5955,0.698205\n243.2678,0.653936\n243.9143,0.614918\n244.5387,0.581335\n245.1444,0.541342\n245.7610,0.501333\n246.3829,0.461348\n247.0317,0.427746\n247.5602,0.396496\n248.0941,0.365020\n248.6388,0.333427\n249.5054,0.294885\n250.0410,0.266725\n250.5875,0.238573\n251.1393,0.210399\n252.0072,0.177277\n252.1597,0.163489\n252.6772,0.138271\n##END=\n'