b'##TITLE=Pentafluoropropionic anhydride\n##JCAMP-DX=4.24\n##DATA TYPE=UV/VIS SPECTRUM\n##ORIGIN=INSTITUTE OF ENERGY PROBLEMS OF CHEMICAL PHYSICS, RAS\n##OWNER=INEP CP RAS, NIST OSRD\nCollection (C) 2007 copyright by the U.S. Secretary of Commerce\non behalf of the United States of America. All rights reserved.\n##CAS REGISTRY NO=356-42-3\n##MOLFORM=C6F10O3\n##SOURCE REFERENCE=RAS UV No. 16256\n##$NIST SQUIB=1972CHA/WHI96\n##$NIST SOURCE=TYUGLMTE\n##SPECTROMETER/DATA SYSTEM=unknown\n##XUNITS=Wavelength (nm)\n##YUNITS=Logarithm epsilon\n##XFACTOR=1.0\n##YFACTOR=1.0\n##FIRSTX=197.09\n##LASTX=305.03\n##FIRSTY=2.388\n##MAXX=305.03\n##MINX=197.09\n##MAXY=2.388\n##MINY=1.469\n##NPOINTS=60\n##$REF AUTHOR=Chamberlain, G.A.; Whittle, E.\n##$REF JOURNAL=J. Chem. Soc., Faraday Trans. 1\n##$REF PAGE=96\n##$REF DATE=1972\n##XYPOINTS=(XY..XY)\n197.09,2.388\n198.10,2.379\n199.12,2.377\n200.14,2.371\n201.15,2.366\n202.17,2.360\n203.19,2.352\n204.09,2.343\n205.11,2.334\n206.01,2.325\n206.92,2.312\n207.94,2.303\n208.84,2.290\n209.74,2.276\n210.76,2.266\n211.78,2.255\n212.68,2.237\n213.59,2.221\n214.49,2.206\n215.40,2.189\n216.30,2.172\n217.09,2.150\n218.00,2.131\n218.90,2.112\n219.80,2.096\n220.82,2.080\n221.84,2.064\n223.87,2.041\n224.89,2.035\n225.91,2.029\n226.92,2.023\n227.94,2.017\n229.98,2.010\n232.01,2.023\n233.03,2.029\n234.05,2.041\n235.06,2.053\n236.08,2.058\n239.13,2.064\n242.18,2.058\n244.22,2.053\n245.24,2.047\n247.27,2.023\n248.29,2.010\n249.30,1.998\n250.21,1.978\n251.23,1.964\n253.15,1.919\n254.16,1.895\n255.18,1.879\n256.20,1.852\n257.22,1.834\n258.23,1.814\n259.25,1.794\n260.27,1.783\n261.29,1.773\n264.34,1.738\n265.35,1.726\n268.41,1.688\n305.03,1.469\n##END=\n'