b'##TITLE=2-Methylthiazole\n##JCAMP-DX=4.24\n##DATA TYPE=UV/VIS SPECTRUM\n##ORIGIN=INSTITUTE OF ENERGY PROBLEMS OF CHEMICAL PHYSICS, RAS\n##OWNER=INEP CP RAS, NIST OSRD\nCollection (C) 2007 copyright by the U.S. Secretary of Commerce\non behalf of the United States of America. All rights reserved.\n##CAS REGISTRY NO=3581-87-1\n##MOLFORM=C4H5NS\n##BP=128.5\n##SOURCE REFERENCE=RAS UV No. 20238\n##$NIST SQUIB=1969BOL/358\n##$NIST SOURCE=TYUGLMTE\n##SPECTROMETER/DATA SYSTEM=unknown\n##XUNITS=Wavelength (nm)\n##YUNITS=Logarithm epsilon\n##XFACTOR=1.0\n##YFACTOR=1.0\n##FIRSTX=216.13\n##LASTX=257.31\n##FIRSTY=3.203\n##MAXX=257.31\n##MINX=216.13\n##MAXY=3.593\n##MINY=2.899\n##NPOINTS=58\n##$REF AUTHOR=Bolshakov, G.F.; et al.\n##$REF JOURNAL=Ultraviolet Spectra of Heteroorganic Compounds\n##$REF PAGE=358\n##$REF DATE=1969\n##XYPOINTS=(XY..XY)\n216.13,3.203\n216.30,3.203\n216.47,3.203\n216.64,3.203\n216.81,3.203\n216.97,3.203\n217.14,3.203\n217.31,3.203\n217.48,3.203\n217.65,3.203\n217.82,3.205\n218.66,3.208\n219.50,3.213\n220.34,3.222\n221.18,3.229\n222.02,3.239\n222.86,3.249\n223.70,3.259\n224.54,3.274\n225.38,3.288\n226.22,3.300\n227.06,3.317\n227.90,3.332\n228.74,3.356\n229.58,3.380\n230.42,3.405\n231.26,3.439\n232.10,3.470\n232.94,3.499\n233.78,3.523\n234.62,3.541\n235.46,3.557\n236.30,3.569\n237.14,3.579\n237.98,3.586\n238.82,3.589\n239.66,3.593\n240.50,3.593\n241.34,3.591\n242.18,3.587\n243.03,3.583\n243.87,3.577\n244.71,3.569\n245.49,3.560\n246.39,3.547\n247.23,3.531\n248.07,3.511\n248.91,3.489\n249.75,3.462\n250.59,3.421\n251.43,3.361\n252.07,3.307\n253.00,3.228\n253.95,3.137\n254.79,3.059\n255.45,3.000\n256.47,2.939\n257.31,2.899\n##END=\n'