b'##TITLE=Ethene, trichlorofluoro-\n##JCAMP-DX=4.24\n##DATA TYPE=UV/VIS SPECTRUM\n##ORIGIN=INSTITUTE OF ENERGY PROBLEMS OF CHEMICAL PHYSICS, RAS\n##OWNER=INEP CP RAS, NIST OSRD\nCollection (C) 2007 copyright by the U.S. Secretary of Commerce\non behalf of the United States of America. All rights reserved.\n##CAS REGISTRY NO=359-29-5\n##MOLFORM=C2Cl3F\n##MP=- 108.9\n##BP=71\n##SOURCE REFERENCE=RAS UV No. 10175\n##$NIST SQUIB=1950LAC/PAR5486\n##$NIST SOURCE=TYUGLMTE\n##SPECTROMETER/DATA SYSTEM=Beckman DU\n##XUNITS=Wavelength (nm)\n##YUNITS=Logarithm epsilon\n##XFACTOR=1.0\n##YFACTOR=1.0\n##FIRSTX=257.1\n##LASTX=270.83\n##FIRSTY=1.662\n##MAXX=270.83\n##MINX=257.1\n##MAXY=1.662\n##MINY=0.329\n##NPOINTS=55\n##$REF AUTHOR=Lacher, J.R.; Park, J.D.\n##$REF JOURNAL=J. Am. Chem. Soc.\n##$REF VOLUME=72\n##$REF PAGE=5486\n##$REF DATE=1950\n##XYPOINTS=(XY..XY)\n257.10,1.662\n257.18,1.653\n257.24,1.646\n257.30,1.637\n257.36,1.627\n257.44,1.618\n257.50,1.611\n257.56,1.602\n257.63,1.593\n257.74,1.583\n257.86,1.571\n257.98,1.560\n258.03,1.554\n258.14,1.541\n258.23,1.531\n258.36,1.517\n258.43,1.511\n258.56,1.500\n258.69,1.488\n258.83,1.476\n258.96,1.464\n259.09,1.451\n259.23,1.438\n259.36,1.425\n259.53,1.411\n259.74,1.394\n259.90,1.381\n260.03,1.366\n260.20,1.353\n260.44,1.333\n260.62,1.317\n260.81,1.297\n260.98,1.279\n261.14,1.262\n261.39,1.239\n261.60,1.219\n261.79,1.195\n262.07,1.171\n262.31,1.146\n262.54,1.116\n262.75,1.090\n263.03,1.059\n263.30,1.026\n263.63,0.991\n263.95,0.949\n264.27,0.909\n264.69,0.861\n265.19,0.807\n265.67,0.761\n266.37,0.699\n267.08,0.641\n267.94,0.581\n268.80,0.512\n269.81,0.430\n270.83,0.329\n##END=\n'