b'##TITLE=Ethene, 2-chloro-1,1-difluoro-\n##JCAMP-DX=4.24\n##DATA TYPE=UV/VIS SPECTRUM\n##ORIGIN=INSTITUTE OF ENERGY PROBLEMS OF CHEMICAL PHYSICS, RAS\n##OWNER=INEP CP RAS, NIST OSRD\nCollection (C) 2007 copyright by the U.S. Secretary of Commerce\non behalf of the United States of America. All rights reserved.\n##CAS REGISTRY NO=359-10-4\n##MOLFORM=C2HClF2\n##MP=- 138.5\n##BP=- 18.5\n##SOURCE REFERENCE=RAS UV No. 10183\n##$NIST SQUIB=1950LAC/JDP5486\n##$NIST SOURCE=TYUGLMTE\n##SPECTROMETER/DATA SYSTEM=Beckman DU\n##XUNITS=Wavelength (nm)\n##YUNITS=Logarithm epsilon\n##XFACTOR=1.0\n##YFACTOR=1.0\n##FIRSTX=227.84\n##LASTX=243.86\n##FIRSTY=1.663\n##MAXX=243.86\n##MINX=227.84\n##MAXY=1.663\n##MINY=-0.025\n##NPOINTS=59\n##$REF AUTHOR=Lacher, J.R.; J.D.Park.\n##$REF JOURNAL=J. Am. Chem. Soc.\n##$REF VOLUME=72\n##$REF PAGE=5486\n##$REF DATE=1950\n##XYPOINTS=(XY..XY)\n227.84,1.663\n227.88,1.657\n227.91,1.652\n227.94,1.647\n228.01,1.633\n228.07,1.625\n228.16,1.613\n228.23,1.601\n228.35,1.585\n228.43,1.573\n228.49,1.565\n228.58,1.554\n228.66,1.546\n228.72,1.540\n228.76,1.535\n228.83,1.530\n228.93,1.518\n229.07,1.506\n229.20,1.491\n229.36,1.476\n229.47,1.464\n229.59,1.454\n229.74,1.441\n229.87,1.426\n230.01,1.414\n230.22,1.400\n230.43,1.385\n230.58,1.369\n230.74,1.354\n230.92,1.336\n231.06,1.321\n231.31,1.301\n231.48,1.284\n231.70,1.265\n231.91,1.245\n232.17,1.225\n232.43,1.202\n232.65,1.178\n232.87,1.153\n233.11,1.127\n233.40,1.099\n233.74,1.072\n234.05,1.041\n234.38,1.006\n234.70,0.969\n235.08,0.929\n235.47,0.893\n236.02,0.850\n236.46,0.802\n236.90,0.747\n237.46,0.685\n238.01,0.623\n238.69,0.550\n239.36,0.470\n240.16,0.369\n240.96,0.273\n241.88,0.164\n242.92,0.058\n243.86,-0.025\n##END=\n'