b'##TITLE=2-Propanone, 1,1,3,3-tetrafluoro-\n##JCAMP-DX=4.24\n##DATA TYPE=UV/VIS SPECTRUM\n##ORIGIN=INSTITUTE OF ENERGY PROBLEMS OF CHEMICAL PHYSICS, RAS\n##OWNER=INEP CP RAS, NIST OSRD\nCollection (C) 2007 copyright by the U.S. Secretary of Commerce\non behalf of the United States of America. All rights reserved.\n##CAS REGISTRY NO=360-52-1\n##MOLFORM=C3H2F4O\n##SOURCE REFERENCE=RAS UV No. 17458\n##$NIST SQUIB=1976MET/PHI1574\n##$NIST SOURCE=TYUGLMTE\n##SPECTROMETER/DATA SYSTEM=Pye-Unicam SP 1800\n##XUNITS=Wavelength (nm)\n##YUNITS=Logarithm epsilon\n##XFACTOR=1.0\n##YFACTOR=1.0\n##FIRSTX=234.17\n##LASTX=358.41\n##FIRSTY=-0.78\n##MAXX=358.41\n##MINX=234.17\n##MAXY=1.165\n##MINY=-0.78\n##NPOINTS=123\n##$REF AUTHOR=Metcalfe, J.; Phillips, D.\n##$REF JOURNAL=J. Chem. Soc., Faraday Trans. II\n##$REF PAGE=1574\n##$REF DATE=1976\n##XYPOINTS=(XY..XY)\n234.17,-0.780\n235.28,-0.744\n236.35,-0.708\n237.24,-0.683\n238.08,-0.657\n238.75,-0.632\n240.02,-0.594\n241.22,-0.556\n242.22,-0.518\n243.42,-0.480\n244.69,-0.439\n245.76,-0.409\n246.92,-0.383\n247.36,-0.373\n248.83,-0.340\n250.33,-0.304\n251.49,-0.269\n252.66,-0.237\n253.83,-0.179\n255.12,-0.129\n256.22,-0.082\n257.38,-0.038\n258.52,-0.003\n259.70,0.041\n260.86,0.079\n262.08,0.114\n263.28,0.160\n264.38,0.196\n265.53,0.240\n266.69,0.279\n267.85,0.324\n269.03,0.365\n270.07,0.402\n271.12,0.443\n272.02,0.480\n272.93,0.514\n273.84,0.546\n274.77,0.580\n275.69,0.608\n276.63,0.638\n277.41,0.666\n278.20,0.692\n279.15,0.717\n279.95,0.740\n280.75,0.763\n281.56,0.784\n282.37,0.807\n283.19,0.826\n284.01,0.847\n284.83,0.864\n285.66,0.884\n286.67,0.897\n287.51,0.913\n288.35,0.930\n289.21,0.947\n290.06,0.963\n290.92,0.978\n291.79,0.991\n292.66,1.006\n293.54,1.020\n294.42,1.031\n295.31,1.043\n296.20,1.056\n297.10,1.068\n298.18,1.079\n299.10,1.089\n300.20,1.098\n301.30,1.108\n302.23,1.117\n303.54,1.124\n304.87,1.131\n306.01,1.139\n307.35,1.145\n308.90,1.152\n310.47,1.157\n312.05,1.160\n313.85,1.162\n315.47,1.165\n317.31,1.165\n318.55,1.158\n319.38,1.148\n320.42,1.138\n321.26,1.127\n322.11,1.116\n322.75,1.105\n323.60,1.094\n324.67,1.083\n325.75,1.071\n326.84,1.059\n327.93,1.046\n329.03,1.033\n330.14,1.020\n331.03,1.006\n331.93,0.991\n332.83,0.976\n333.51,0.961\n334.42,0.945\n335.11,0.928\n335.80,0.911\n336.49,0.893\n337.24,0.876\n337.89,0.852\n338.35,0.829\n338.82,0.804\n339.52,0.778\n340.00,0.750\n340.71,0.724\n341.66,0.696\n342.37,0.666\n343.33,0.633\n344.14,0.604\n345.27,0.556\n346.00,0.514\n346.74,0.468\n347.47,0.416\n348.21,0.357\n349.11,0.284\n349.96,0.196\n350.96,0.091\n352.47,-0.022\n354.26,-0.153\n356.32,-0.304\n358.41,-0.429\n##END=\n'