b'##TITLE=2,4-Pentanedione, 1,1,1-trifluoro-\n##JCAMP-DX=4.24\n##DATA TYPE=UV/VIS SPECTRUM\n##ORIGIN=INSTITUTE OF ENERGY PROBLEMS OF CHEMICAL PHYSICS, RAS\n##OWNER=INEP CP RAS, NIST OSRD\nCollection (C) 2007 copyright by the U.S. Secretary of Commerce\non behalf of the United States of America. All rights reserved.\n##CAS REGISTRY NO=367-57-7\n##MOLFORM=C5H5F3O2\n##MP=128\n##BP=107\n##SOURCE REFERENCE=RAS UV No. 12104\n##$NIST SQUIB=1953LAR/LED5107\n##$NIST SOURCE=TYUGLMTE\n##SPECTROMETER/DATA SYSTEM=Cary Model 11\n##XUNITS=Wavelength (nm)\n##YUNITS=Logarithm epsilon\n##XFACTOR=1.0\n##YFACTOR=1.0\n##FIRSTX=202.15\n##LASTX=301.17\n##FIRSTY=3.083\n##MAXX=301.17\n##MINX=202.15\n##MAXY=3.799\n##MINY=3.004\n##NPOINTS=57\n##$REF AUTHOR=Larsen, E.M.; Leddy, J.\n##$REF JOURNAL=J. Am. Chem. Soc.\n##$REF VOLUME=75\n##$REF PAGE=5107\n##$REF DATE=1953\n##XYPOINTS=(XY..XY)\n202.15,3.083\n202.87,3.083\n203.58,3.086\n204.34,3.090\n205.02,3.094\n205.66,3.096\n206.42,3.100\n207.17,3.104\n207.93,3.108\n208.61,3.113\n209.35,3.119\n210.04,3.123\n210.77,3.126\n211.62,3.130\n212.20,3.132\n213.70,3.142\n215.07,3.150\n217.20,3.166\n219.37,3.179\n221.54,3.201\n223.68,3.224\n225.83,3.245\n227.98,3.266\n230.13,3.293\n232.29,3.329\n234.44,3.363\n236.60,3.403\n238.49,3.440\n240.76,3.486\n243.05,3.532\n245.20,3.567\n247.35,3.609\n250.67,3.667\n253.42,3.713\n255.03,3.733\n256.73,3.753\n258.34,3.769\n260.32,3.783\n262.42,3.795\n264.57,3.799\n266.73,3.799\n268.88,3.795\n271.03,3.774\n273.18,3.746\n275.18,3.702\n277.21,3.641\n279.36,3.549\n281.79,3.433\n283.95,3.363\n286.10,3.305\n287.78,3.254\n290.40,3.192\n292.40,3.147\n294.55,3.097\n296.80,3.060\n299.01,3.028\n301.17,3.004\n##END=\n'