b'##TITLE=3-Fluoropyridine\n##JCAMP-DX=4.24\n##DATA TYPE=UV/VIS SPECTRUM\n##ORIGIN=INSTITUTE OF ENERGY PROBLEMS OF CHEMICAL PHYSICS, RAS\n##OWNER=INEP CP RAS, NIST OSRD\nCollection (C) 2007 copyright by the U.S. Secretary of Commerce\non behalf of the United States of America. All rights reserved.\n##CAS REGISTRY NO=372-47-4\n##MOLFORM=C5H4FN\n##SOURCE REFERENCE=RAS UV No. 2499\n##$NIST SQUIB=1954STE1077-1082\n##$NIST SOURCE=TSGMTE\n##SPECTROMETER/DATA SYSTEM=Beckman spectrophotometer\n##XUNITS=Wavelength (nm)\n##YUNITS=Logarithm epsilon\n##XFACTOR=1.000000\n##YFACTOR=1.000000\n##FIRSTX=280.4440\n##LASTX=210.5437\n##FIRSTY=1.85391\n##MAXX=280.444\n##MINX=210.544\n##MAXY=3.40879\n##MINY=1.85391\n##NPOINTS=203\n##$REF AUTHOR=Stephenson, H.P.\n##$REF TITLE=Solution spectra and oscillator strengths of electronic transitions of pyridine and some monosubstituted derivatives\n##$REF JOURNAL=J. Chem. Phys.\n##$REF VOLUME=22\n##$REF NUMBER=6\n##$REF PAGE=1077-1082\n##$REF DATE=1954\n##XYPOINTS=(XY..XY)\n280.4440,1.853906\n279.7029,1.946226\n278.9869,2.035838\n278.2946,2.122154\n277.6252,2.204916\n276.9775,2.284073\n276.9775,2.284073\n276.3453,2.393940\n275.9160,2.456864\n275.5825,2.502836\n275.2391,2.548656\n274.7812,2.604958\n274.7812,2.604958\n274.5843,2.645770\n274.3946,2.683046\n274.2117,2.717353\n274.0355,2.749133\n273.8656,2.778736\n273.7018,2.806446\n273.5438,2.832494\n273.3915,2.857072\n273.2444,2.880342\n273.1025,2.902440\n272.9655,2.923481\n272.8330,2.943567\n272.7049,2.962785\n272.5809,2.981209\n272.4608,2.998907\n272.3443,3.015937\n272.2313,3.032351\n272.1213,3.048196\n272.0143,3.063514\n271.9100,3.078341\n271.9100,3.078341\n271.7670,3.087282\n271.6653,3.095176\n271.5570,3.099929\n271.5570,3.099929\n271.4867,3.114325\n271.4009,3.128044\n271.3000,3.141173\n271.1847,3.153787\n271.0554,3.165958\n270.9126,3.177746\n270.7569,3.189208\n270.5888,3.200395\n270.4088,3.211353\n270.2174,3.222123\n270.2174,3.222123\n269.6943,3.234093\n269.2435,3.244444\n268.5711,3.257010\n268.5711,3.257010\n268.0127,3.263173\n267.6644,3.267775\n267.2268,3.274743\n267.2268,3.274743\n266.8779,3.286402\n266.5787,3.296203\n266.3198,3.304565\n266.0921,3.311865\n265.8866,3.318446\n265.6942,3.324629\n265.5060,3.330715\n265.3131,3.336988\n265.1067,3.343716\n264.8780,3.351150\n264.6183,3.359518\n264.3189,3.369028\n263.9714,3.379858\n263.9714,3.379858\n263.4624,3.386324\n263.0574,3.389975\n262.7149,3.391465\n262.3942,3.391403\n262.0547,3.390376\n261.6565,3.388966\n261.1602,3.387759\n260.5270,3.387349\n260.5270,3.387349\n259.8013,3.392823\n259.1733,3.397559\n258.6291,3.401520\n258.1550,3.404667\n257.7379,3.406958\n257.3646,3.408348\n257.0225,3.408786\n256.6989,3.408217\n256.3812,3.406576\n256.0572,3.403794\n255.7144,3.399787\n255.3409,3.394460\n254.9247,3.387703\n254.4540,3.379386\n254.4540,3.379386\n253.8019,3.370069\n253.2706,3.362266\n252.8335,3.355657\n252.4643,3.349887\n252.1372,3.344573\n251.8269,3.339312\n251.5081,3.333678\n251.1560,3.327222\n250.7461,3.319468\n250.2539,3.309893\n250.2539,3.309893\n249.9383,3.299931\n249.4436,3.287817\n248.9496,3.277199\n248.9496,3.277199\n248.6934,3.268885\n248.4261,3.260478\n248.1496,3.251961\n247.8657,3.243317\n247.5761,3.234528\n247.2828,3.225572\n246.9876,3.216427\n246.6921,3.207071\n246.3981,3.197477\n246.1075,3.187617\n245.8219,3.177462\n245.5430,3.166979\n245.2725,3.156131\n245.0121,3.144880\n244.7635,3.133182\n244.7635,3.133182\n243.8607,3.102926\n243.3991,3.086041\n243.2282,3.078396\n243.2012,3.074651\n242.7960,3.060051\n242.3999,3.046524\n242.0051,3.032544\n241.6114,3.018085\n241.2187,3.003113\n240.8270,2.987596\n240.4361,2.971494\n240.0461,2.954764\n239.6567,2.937360\n239.2681,2.919226\n239.2681,2.919226\n238.8482,2.902670\n238.4310,2.886206\n238.0152,2.869838\n237.5997,2.853571\n237.1834,2.837406\n236.7652,2.821344\n236.3440,2.805384\n235.9187,2.789522\n235.4882,2.773755\n235.0516,2.758073\n234.6077,2.742465\n234.1556,2.726919\n233.6943,2.711416\n233.2228,2.695936\n232.7401,2.680454\n232.2454,2.664939\n231.7377,2.649356\n231.2161,2.633666\n230.6798,2.617821\n230.1279,2.601768\n230.1279,2.601768\n229.5985,2.583580\n228.9451,2.573034\n228.2703,2.565034\n227.6746,2.553905\n227.2564,2.533301\n227.2564,2.533301\n226.7570,2.526564\n226.2591,2.519629\n225.7626,2.512506\n225.2676,2.505203\n224.7741,2.497728\n224.2821,2.490091\n223.7917,2.482302\n223.3028,2.474371\n222.8155,2.466311\n222.3298,2.458135\n221.8457,2.449856\n221.3633,2.441489\n220.8826,2.433053\n220.4036,2.424563\n219.9262,2.416040\n219.4506,2.407505\n218.9768,2.398980\n218.5047,2.390488\n218.0344,2.382059\n217.5658,2.373718\n217.0991,2.365495\n216.6343,2.357424\n216.1713,2.349537\n215.7101,2.341871\n215.2509,2.334464\n214.7935,2.327354\n214.3380,2.320582\n213.8845,2.314192\n213.4329,2.308226\n212.9833,2.302727\n212.8654,2.296272\n212.2819,2.310299\n211.7010,2.323517\n211.1218,2.336108\n210.5437,2.348237\n##END=\n'