b'##TITLE=2-Fluoropyridine\n##JCAMP-DX=4.24\n##DATA TYPE=UV/VIS SPECTRUM\n##ORIGIN=INSTITUTE OF ENERGY PROBLEMS OF CHEMICAL PHYSICS, RAS\n##OWNER=INEP CP RAS, NIST OSRD\nCollection (C) 2007 copyright by the U.S. Secretary of Commerce\non behalf of the United States of America. All rights reserved.\n##CAS REGISTRY NO=372-48-5\n##MOLFORM=C5H4FN\n##BP=125\n##SOURCE REFERENCE=RAS UV No. 2498\n##$NIST SQUIB=1954STE1077-1082\n##$NIST SOURCE=TSGMTE\n##SPECTROMETER/DATA SYSTEM=Beckman spectrophotometer\n##XUNITS=Wavelength (nm)\n##YUNITS=Logarithm epsilon\n##XFACTOR=1.000000\n##YFACTOR=1.000000\n##FIRSTX=271.0424\n##LASTX=211.2090\n##FIRSTY=2.15635\n##MAXX=271.042\n##MINX=211.209\n##MAXY=3.47783\n##MINY=2.15635\n##NPOINTS=237\n##$REF AUTHOR=Stephenson, H.P.\n##$REF TITLE=Solution spectra and oscillator strengths of electronic transitions of pyridine and some monosubstituted derivatives\n##$REF JOURNAL=J. Chem. Phys.\n##$REF VOLUME=22\n##$REF NUMBER=6\n##$REF PAGE=1077-1082\n##$REF DATE=1954\n##XYPOINTS=(XY..XY)\n271.0424,2.156353\n270.4532,2.271617\n269.8202,2.384000\n269.8202,2.384000\n269.5682,2.454316\n269.3293,2.514932\n269.1030,2.568211\n268.8888,2.615748\n268.6861,2.658665\n268.4946,2.697785\n268.3136,2.733730\n268.1428,2.766977\n267.9815,2.797907\n267.8294,2.826821\n267.6860,2.853968\n267.5507,2.879551\n267.4232,2.903743\n267.3028,2.926686\n267.1893,2.948502\n267.0821,2.969299\n266.9807,2.989166\n266.8848,3.008182\n266.7938,3.026418\n266.7073,3.043935\n266.6248,3.060786\n266.5459,3.077020\n266.5344,3.078857\n266.5338,3.076513\n266.5333,3.074105\n266.5326,3.071578\n266.4702,3.092681\n266.3971,3.107806\n266.3263,3.122431\n266.2574,3.136587\n266.1897,3.150303\n266.1230,3.163604\n266.0932,3.177803\n266.0928,3.176634\n266.0924,3.175379\n266.0920,3.174079\n266.0568,3.176515\n265.9906,3.189057\n265.9868,3.202149\n265.9862,3.200385\n265.9857,3.198576\n265.9850,3.196680\n265.9240,3.201250\n265.8656,3.214771\n265.8652,3.213577\n265.8648,3.212380\n265.8644,3.211180\n265.8565,3.213113\n265.7877,3.224661\n265.7588,3.235398\n265.7579,3.232622\n265.7569,3.229792\n265.7559,3.226870\n265.7173,3.235912\n265.6446,3.246878\n265.5694,3.257574\n265.4911,3.268012\n265.4094,3.278204\n265.3238,3.288160\n265.2338,3.297890\n265.1391,3.307403\n265.1391,3.307403\n265.0828,3.309329\n265.0241,3.311246\n264.9603,3.313155\n264.9603,3.313155\n264.8665,3.313160\n264.7678,3.313166\n264.6666,3.313172\n264.6666,3.313172\n264.5388,3.304696\n264.3486,3.292993\n264.1069,3.279594\n263.8247,3.266200\n263.5129,3.254726\n263.1822,3.247274\n263.1822,3.247274\n262.8895,3.248528\n262.7111,3.249805\n262.4938,3.252194\n262.4938,3.252194\n262.3024,3.262796\n262.1199,3.273205\n261.9459,3.283423\n261.7799,3.293453\n261.6215,3.303299\n261.4703,3.312963\n261.3258,3.322449\n261.1877,3.331758\n261.0554,3.340895\n260.9285,3.349860\n260.8067,3.358659\n260.6895,3.367291\n260.5765,3.375762\n260.4673,3.384072\n260.3614,3.392224\n260.2585,3.400221\n260.1581,3.408064\n260.0599,3.415757\n259.9634,3.423300\n259.8682,3.430697\n259.7739,3.437949\n259.6802,3.445058\n259.5865,3.452026\n259.4926,3.458855\n259.3979,3.465546\n259.3979,3.465546\n259.1357,3.469315\n258.8341,3.474451\n258.5728,3.477834\n258.5728,3.477834\n258.2090,3.475053\n258.0327,3.473312\n257.8920,3.471121\n257.8920,3.471121\n257.6934,3.462786\n257.4725,3.454261\n257.2376,3.445484\n256.9970,3.436390\n256.7587,3.426904\n256.7587,3.426904\n256.5413,3.422926\n256.3195,3.418912\n256.0958,3.414860\n256.0958,3.414860\n255.8212,3.414659\n255.5472,3.414458\n255.2738,3.414257\n255.2738,3.414257\n255.2009,3.415410\n255.1280,3.416514\n255.0552,3.417590\n254.6278,3.420908\n254.1462,3.427197\n253.4708,3.433405\n252.6953,3.433535\n252.6953,3.433535\n252.3858,3.427023\n252.1065,3.420264\n251.8523,3.413266\n251.6180,3.406042\n251.3987,3.398601\n251.1895,3.390956\n250.9853,3.383121\n250.7813,3.375109\n250.5726,3.366935\n250.3545,3.358616\n250.1220,3.350170\n249.8705,3.341616\n249.5952,3.332975\n249.2915,3.324271\n248.9547,3.315528\n248.9547,3.315528\n248.4844,3.307200\n248.0372,3.298911\n247.6111,3.290549\n247.2046,3.281988\n246.8157,3.273096\n246.4427,3.263727\n246.0840,3.253725\n245.7378,3.242915\n245.4026,3.231103\n244.9421,3.212889\n244.6005,3.202245\n244.2528,3.191362\n243.8990,3.180236\n243.5389,3.168865\n243.1726,3.157245\n242.7998,3.145372\n242.4207,3.133244\n242.0351,3.120857\n241.6430,3.108210\n241.2444,3.095298\n240.8391,3.082120\n240.4272,3.068674\n240.0086,3.054959\n239.5832,3.040972\n239.1511,3.026714\n238.7121,3.012185\n238.2663,2.997387\n237.8136,2.982319\n237.3540,2.966987\n236.8875,2.951396\n236.4140,2.935549\n236.4140,2.935549\n235.4154,2.906167\n234.5478,2.879955\n233.8300,2.857597\n233.2808,2.839746\n232.9192,2.826970\n232.7648,2.819695\n232.7648,2.819695\n232.3906,2.813253\n231.9615,2.803521\n231.6756,2.788408\n231.3204,2.776522\n231.2100,2.775217\n231.0023,2.770708\n230.6505,2.762089\n230.1086,2.748279\n229.3323,2.727898\n228.2799,2.699063\n226.9131,2.659010\n226.9131,2.659010\n226.2997,2.646635\n225.6878,2.633610\n225.0755,2.620034\n225.0755,2.620034\n224.1082,2.609307\n223.1905,2.600330\n222.3575,2.592917\n221.6431,2.586843\n221.0808,2.581858\n220.7039,2.577684\n220.5459,2.574032\n220.4675,2.574069\n219.0921,2.588530\n218.0586,2.599317\n217.2993,2.607386\n216.7507,2.613569\n216.3517,2.618626\n216.0431,2.623265\n215.7668,2.628165\n215.4651,2.633973\n215.4651,2.633973\n214.8795,2.654761\n214.3221,2.675025\n213.7863,2.695105\n213.2656,2.715284\n212.7537,2.735793\n212.2443,2.756817\n211.7314,2.778499\n211.2090,2.800943\n##END=\n'