b'##TITLE=Carbamodithioic acid, dimethyl-, methyl ester\n##JCAMP-DX=4.24\n##DATA TYPE=UV/VIS SPECTRUM\n##ORIGIN=INSTITUTE OF ENERGY PROBLEMS OF CHEMICAL PHYSICS, RAS\n##OWNER=INEP CP RAS, NIST OSRD\nCollection (C) 2007 copyright by the U.S. Secretary of Commerce\non behalf of the United States of America. All rights reserved.\n##CAS REGISTRY NO=3735-92-0\n##MOLFORM=C4H9NS2\n##SOURCE REFERENCE=RAS UV No. 10660\n##$NIST SQUIB=1949KOC401\n##$NIST SOURCE=TYUGLMTE\n##SPECTROMETER/DATA SYSTEM=n.i.g.\n##XUNITS=Wavelength (nm)\n##YUNITS=Logarithm epsilon\n##XFACTOR=1.0\n##YFACTOR=1.0\n##FIRSTX=224.1\n##LASTX=297.95\n##FIRSTY=3.992\n##MAXX=297.95\n##MINX=224.1\n##MAXY=4.051\n##MINY=3.114\n##NPOINTS=74\n##$REF AUTHOR=Koch, H.P.\n##$REF JOURNAL=J. Chem. Soc.\n##$REF PAGE=401\n##$REF DATE=1949\n##XYPOINTS=(XY..XY)\n224.10,3.992\n225.09,3.974\n226.15,3.952\n227.18,3.928\n228.21,3.899\n229.23,3.874\n230.26,3.840\n231.28,3.805\n231.90,3.780\n232.43,3.765\n233.33,3.753\n234.36,3.753\n235.38,3.763\n236.20,3.774\n237.44,3.798\n238.46,3.813\n239.50,3.830\n240.51,3.851\n241.56,3.870\n242.56,3.888\n243.59,3.906\n244.62,3.919\n245.64,3.927\n246.67,3.932\n247.69,3.936\n248.72,3.934\n249.74,3.930\n250.77,3.923\n251.79,3.913\n252.82,3.897\n253.85,3.881\n254.87,3.863\n255.93,3.847\n256.92,3.840\n257.95,3.836\n258.97,3.840\n260.00,3.851\n261.03,3.860\n262.05,3.878\n263.08,3.899\n264.10,3.921\n265.13,3.936\n266.15,3.953\n267.18,3.974\n268.21,3.988\n269.23,4.001\n270.26,4.019\n271.28,4.034\n272.31,4.046\n273.33,4.050\n274.36,4.051\n275.38,4.049\n276.41,4.043\n277.40,4.029\n278.46,4.011\n279.49,3.991\n280.57,3.964\n281.56,3.935\n282.56,3.904\n283.59,3.877\n284.62,3.846\n285.64,3.812\n286.67,3.770\n287.70,3.727\n288.88,3.668\n289.74,3.629\n290.77,3.580\n291.79,3.507\n292.82,3.437\n293.85,3.384\n294.87,3.315\n295.90,3.270\n296.92,3.213\n297.95,3.114\n##END=\n'