b'##TITLE=1,1,3,3-Tetranitrobutane\n##JCAMP-DX=4.24\n##DATA TYPE=UV/VIS SPECTRUM\n##ORIGIN=INSTITUTE OF ENERGY PROBLEMS OF CHEMICAL PHYSICS, RAS\n##OWNER=INEP CP RAS, NIST OSRD\nCollection (C) 2007 copyright by the U.S. Secretary of Commerce\non behalf of the United States of America. All rights reserved.\n##CAS REGISTRY NO=3759-60-2\n##MOLFORM=C4H6N4O8\n##MP=54-55\n##SOURCE REFERENCE=RAS UV No. 13208\n##$NIST SQUIB=1962NOV/598\n##$NIST SOURCE=TYUGLMTE\n##SPECTROMETER/DATA SYSTEM=n.i.g.\n##XUNITS=Wavelength (nm)\n##YUNITS=Logarithm epsilon\n##XFACTOR=1.0\n##YFACTOR=1.0\n##FIRSTX=220.9\n##LASTX=379.21\n##FIRSTY=4.194\n##MAXX=379.21\n##MINX=220.9\n##MAXY=4.201\n##MINY=3.48\n##NPOINTS=56\n##$REF AUTHOR=Novikov, S.S.; et al.\n##$REF JOURNAL=Izvest. Akad. Nauk S.S.S.R. (in Rus.)\n##$REF PAGE=598\n##$REF DATE=1962\n##XYPOINTS=(XY..XY)\n220.90,4.194\n224.54,4.194\n228.79,4.187\n233.02,4.167\n236.65,4.146\n239.88,4.119\n243.12,4.092\n245.94,4.058\n249.17,4.031\n252.00,3.997\n254.83,3.963\n258.06,3.915\n260.48,3.874\n263.16,3.840\n265.73,3.793\n267.95,3.748\n269.77,3.698\n271.38,3.643\n273.40,3.596\n275.42,3.548\n278.25,3.507\n282.31,3.487\n287.13,3.480\n291.04,3.490\n294.00,3.514\n296.83,3.548\n300.06,3.595\n302.08,3.630\n304.50,3.670\n307.33,3.704\n309.75,3.745\n312.58,3.779\n315.40,3.820\n318.09,3.860\n320.25,3.902\n323.48,3.936\n326.31,3.976\n329.13,4.010\n332.17,4.053\n334.42,4.083\n337.62,4.112\n340.85,4.140\n344.85,4.169\n347.71,4.187\n351.35,4.201\n355.27,4.196\n358.62,4.174\n361.85,4.140\n364.67,4.092\n367.10,4.044\n369.12,3.997\n371.13,3.949\n373.30,3.895\n375.98,3.834\n378.00,3.779\n379.21,3.725\n##END=\n'