b'##TITLE=Pyrimidine, 2,4,6-trichloro-\n##JCAMP-DX=4.24\n##DATA TYPE=UV/VIS SPECTRUM\n##ORIGIN=INSTITUTE OF ENERGY PROBLEMS OF CHEMICAL PHYSICS, RAS\n##OWNER=INEP CP RAS, NIST OSRD\nCollection (C) 2007 copyright by the U.S. Secretary of Commerce\non behalf of the United States of America. All rights reserved.\n##CAS REGISTRY NO=3764-01-0\n##MOLFORM=C4HCl3N2\n##BP=224\n##SOURCE REFERENCE=RAS UV No. 18926\n##$NIST SQUIB=1975KOP182\n##$NIST SOURCE=TYUGLMTE\n##SPECTROMETER/DATA SYSTEM=SF-16\n##XUNITS=Wavelength (nm)\n##YUNITS=Logarithm epsilon\n##XFACTOR=1.0\n##YFACTOR=1.0\n##FIRSTX=204.72\n##LASTX=277.01\n##FIRSTY=4.018\n##MAXX=277.01\n##MINX=204.72\n##MAXY=4.018\n##MINY=3.008\n##NPOINTS=51\n##$REF AUTHOR=(editor), Koptyug V.A.\n##$REF JOURNAL=Atlas of Spectra of Aromatic and Heterocyclic Compounds\n##$REF VOLUME=8\n##$REF PAGE=182\n##$REF DATE=1975\n##XYPOINTS=(XY..XY)\n204.72,4.018\n207.56,3.985\n208.98,3.961\n210.39,3.942\n211.81,3.919\n213.23,3.909\n214.65,3.886\n216.06,3.857\n217.48,3.829\n218.90,3.805\n220.31,3.777\n221.73,3.749\n223.15,3.716\n224.57,3.673\n225.98,3.635\n227.40,3.584\n228.82,3.522\n230.24,3.466\n231.65,3.414\n233.07,3.329\n234.49,3.248\n235.91,3.206\n237.32,3.201\n238.74,3.206\n240.16,3.225\n241.57,3.258\n242.99,3.296\n244.41,3.319\n245.83,3.362\n247.24,3.409\n248.66,3.480\n250.08,3.522\n251.50,3.569\n252.91,3.607\n254.33,3.645\n255.75,3.673\n257.17,3.697\n258.58,3.720\n260.00,3.744\n261.42,3.763\n262.83,3.777\n264.25,3.782\n265.67,3.753\n267.09,3.697\n268.50,3.645\n269.92,3.574\n271.34,3.466\n272.76,3.381\n274.17,3.239\n275.59,3.149\n277.01,3.008\n##END=\n'