b'##TITLE=5-Chloro-2-methoxypyrimidine\n##JCAMP-DX=4.24\n##DATA TYPE=UV/VIS SPECTRUM\n##ORIGIN=INSTITUTE OF ENERGY PROBLEMS OF CHEMICAL PHYSICS, RAS\n##OWNER=INEP CP RAS, NIST OSRD\nCollection (C) 2007 copyright by the U.S. Secretary of Commerce\non behalf of the United States of America. All rights reserved.\n##CAS REGISTRY NO=38373-44-3\n##MOLFORM=C5H5ClN2O\n##MP=49-50\n##SOURCE REFERENCE=RAS UV No. 18464\n##$NIST SQUIB=1981KOP62\n##$NIST SOURCE=TYUGLMTE\n##SPECTROMETER/DATA SYSTEM=SF-16\n##XUNITS=Wavelength (nm)\n##YUNITS=Logarithm epsilon\n##XFACTOR=1.0\n##YFACTOR=1.0\n##FIRSTX=209.74\n##LASTX=313.58\n##FIRSTY=4.076\n##MAXX=313.58\n##MINX=209.74\n##MAXY=4.154\n##MINY=2.1\n##NPOINTS=99\n##$REF AUTHOR=(editor), Koptyug V.A.\n##$REF JOURNAL=Atlas of Spectra of Aromatic and Heterocyclic Compounds\n##$REF VOLUME=20\n##$REF PAGE=62\n##$REF DATE=1981\n##XYPOINTS=(XY..XY)\n209.74,4.076\n210.28,4.081\n210.82,4.086\n211.36,4.091\n211.90,4.097\n212.44,4.102\n212.98,4.102\n213.52,4.107\n214.06,4.112\n215.14,4.138\n216.23,4.144\n217.31,4.154\n218.39,4.154\n219.47,4.144\n220.55,4.128\n221.64,4.097\n222.72,4.065\n223.80,3.992\n224.88,3.966\n225.96,3.871\n227.04,3.772\n228.13,3.719\n229.21,3.698\n230.29,3.677\n231.37,3.609\n232.45,3.462\n233.53,3.347\n234.62,3.284\n235.70,3.164\n236.78,3.070\n237.86,2.933\n238.94,2.760\n240.03,2.708\n241.11,2.582\n242.19,2.514\n243.27,2.472\n244.35,2.425\n245.43,2.409\n246.52,2.394\n247.60,2.394\n248.68,2.420\n249.76,2.467\n250.84,2.540\n251.92,2.587\n253.01,2.614\n255.17,2.698\n256.25,2.745\n257.33,2.803\n258.42,2.871\n259.50,2.918\n260.58,2.976\n261.66,3.018\n262.74,3.065\n263.82,3.101\n264.91,3.149\n265.99,3.196\n267.07,3.243\n268.15,3.290\n269.23,3.327\n270.31,3.369\n271.40,3.395\n272.48,3.426\n273.56,3.447\n274.64,3.489\n275.72,3.505\n276.81,3.526\n277.89,3.557\n278.97,3.578\n280.05,3.599\n281.13,3.610\n282.21,3.625\n283.30,3.631\n284.38,3.646\n285.46,3.652\n286.54,3.652\n287.62,3.652\n288.70,3.641\n289.79,3.631\n290.87,3.610\n291.95,3.583\n293.03,3.557\n294.11,3.521\n295.19,3.479\n296.28,3.458\n297.36,3.411\n298.44,3.353\n299.52,3.290\n300.60,3.253\n301.69,3.185\n302.77,3.091\n303.85,3.028\n304.93,2.887\n306.01,2.797\n307.09,2.687\n308.18,2.625\n309.26,2.520\n310.34,2.415\n312.50,2.205\n313.58,2.100\n##END=\n'