b"##TITLE=Propane, 1-(methylthio)-\n##JCAMP-DX=4.24\n##DATA TYPE=UV/VIS SPECTRUM\n##ORIGIN=INSTITUTE OF ENERGY PROBLEMS OF CHEMICAL PHYSICS, RAS\n##OWNER=INEP CP RAS, NIST OSRD\nCollection (C) 2007 copyright by the U.S. Secretary of Commerce\non behalf of the United States of America. All rights reserved.\n##CAS REGISTRY NO=3877-15-4\n##MOLFORM=C4H10S\n##BP=95.6\n##SOURCE REFERENCE=RAS UV No. 20104\n##$NIST SQUIB=1969BOL/98\n##$NIST SOURCE=TYUGLMTE\n##SPECTROMETER/DATA SYSTEM=unknown\n##XUNITS=Wavelength (nm)\n##YUNITS=Logarithm epsilon\n##XFACTOR=1.0\n##YFACTOR=1.0\n##FIRSTX=207.47\n##LASTX=268.28\n##FIRSTY=3.035\n##MAXX=268.28\n##MINX=207.47\n##MAXY=3.066\n##MINY=0.239\n##NPOINTS=89\n##$REF AUTHOR=Bol'shakov, G.F.; et al.\n##$REF JOURNAL=Ultraviolet spectra of heteroorganic compounds\n##$REF PAGE=98\n##$REF DATE=1969\n##XYPOINTS=(XY..XY)\n207.47,3.035\n208.83,3.048\n210.36,3.061\n211.89,3.066\n213.42,3.061\n214.61,3.040\n215.63,3.014\n216.31,2.980\n216.82,2.945\n217.32,2.911\n217.66,2.872\n218.17,2.833\n218.51,2.795\n219.02,2.760\n219.53,2.726\n219.87,2.687\n220.38,2.653\n220.89,2.618\n221.40,2.579\n221.74,2.541\n222.25,2.506\n222.76,2.468\n223.10,2.429\n223.61,2.395\n224.12,2.360\n224.46,2.321\n224.97,2.287\n225.48,2.253\n225.99,2.218\n226.50,2.179\n226.84,2.141\n227.35,2.106\n227.86,2.072\n228.37,2.038\n228.70,1.999\n229.21,1.964\n229.72,1.926\n230.23,1.887\n230.74,1.853\n231.25,1.818\n231.59,1.779\n232.10,1.745\n232.61,1.706\n233.12,1.668\n233.63,1.629\n234.14,1.594\n234.65,1.556\n235.16,1.517\n235.67,1.483\n236.18,1.448\n236.69,1.414\n237.37,1.379\n237.88,1.345\n238.39,1.311\n238.90,1.276\n239.58,1.242\n240.25,1.207\n240.76,1.173\n241.44,1.138\n241.95,1.104\n242.63,1.070\n243.31,1.035\n243.99,1.001\n244.84,0.966\n245.35,0.932\n246.20,0.902\n246.71,0.868\n247.56,0.837\n248.41,0.803\n249.26,0.773\n249.94,0.738\n250.79,0.708\n251.64,0.674\n252.48,0.644\n253.33,0.614\n254.18,0.584\n255.03,0.553\n256.05,0.523\n257.07,0.493\n258.09,0.463\n259.11,0.437\n260.13,0.407\n261.32,0.381\n262.34,0.356\n263.35,0.330\n264.54,0.308\n265.73,0.282\n267.09,0.261\n268.28,0.239\n##END=\n"