b'##TITLE=Benzene, hexafluoro-\n##JCAMP-DX=4.24\n##DATA TYPE=UV/VIS SPECTRUM\n##ORIGIN=INSTITUTE OF ENERGY PROBLEMS OF CHEMICAL PHYSICS, RAS\n##OWNER=INEP CP RAS, NIST OSRD\nCollection (C) 2007 copyright by the U.S. Secretary of Commerce\non behalf of the United States of America. All rights reserved.\n##CAS REGISTRY NO=392-56-3\n##MOLFORM=C6F6\n##MP=5.3\n##BP=80.2\n##SOURCE REFERENCE=RAS UV No. 1398\n##$NIST SQUIB=1987HIT/FIS531-540\n##$NIST SOURCE=TSGMTE\n##SPECTROMETER/DATA SYSTEM=n.i.g.\n##XUNITS=Wavelength (nm)\n##YUNITS=Logarithm epsilon\n##XFACTOR=1.000000\n##YFACTOR=1.000000\n##FIRSTX=182.9479\n##LASTX=274.9793\n##FIRSTY=4.29733\n##MAXX=274.979\n##MINX=182.948\n##MAXY=4.45613\n##MINY=2.59737\n##NPOINTS=573\n##$REF AUTHOR=Hitchcock, H.P.; Fischer, P.; Gedanken, A.; Robin, M.B.\n##$REF TITLE=Antibonding \xabalpha\xbb valence MOs in the inner-shell and outer-shell spectra of the fluorobenzenes\n##$REF JOURNAL=J. Phys. Chem.\n##$REF VOLUME=91\n##$REF PAGE=531-540\n##$REF DATE=1987\n##XYPOINTS=(XY..XY)\n182.9479,4.297333\n182.9497,4.299797\n183.1229,4.294995\n183.1247,4.297327\n183.3191,4.291319\n183.3209,4.293671\n183.4941,4.288800\n183.4960,4.291313\n183.6690,4.286266\n183.6700,4.287606\n183.8653,4.282665\n183.8671,4.285065\n184.0412,4.281304\n184.0422,4.282659\n184.2162,4.278878\n184.2171,4.280090\n184.4142,4.277504\n184.4152,4.278871\n184.5910,4.277498\n184.7670,4.276273\n184.9438,4.276266\n185.1436,4.277479\n185.3205,4.277473\n185.3215,4.278840\n185.4992,4.280046\n185.5001,4.281254\n185.7000,4.282603\n185.7009,4.283804\n185.8786,4.284997\n185.8822,4.289904\n186.0601,4.291227\n186.0646,4.297230\n186.2635,4.297223\n186.2682,4.303288\n186.4450,4.303282\n186.4487,4.307989\n186.6264,4.309116\n186.6310,4.315018\n186.8300,4.315012\n186.8345,4.320697\n187.0113,4.320691\n187.0160,4.326439\n187.1937,4.327520\n187.1974,4.331972\n187.3752,4.333173\n187.3797,4.338627\n187.5787,4.338621\n187.5842,4.345180\n187.7610,4.345175\n187.7657,4.350610\n187.9434,4.351632\n187.9479,4.356860\n188.1478,4.357994\n188.1524,4.363146\n188.3302,4.364264\n188.3347,4.369343\n188.5125,4.370322\n188.5171,4.375453\n188.7160,4.375448\n188.7216,4.381477\n188.8984,4.381473\n188.9029,4.386356\n189.0798,4.386351\n189.0853,4.392232\n189.2621,4.392228\n189.2668,4.397107\n189.4666,4.398025\n189.4711,4.402727\n189.6480,4.402722\n189.6526,4.407486\n189.8303,4.408383\n189.8341,4.412193\n190.0330,4.412188\n190.0376,4.416740\n190.2144,4.416735\n190.2190,4.421348\n190.3959,4.421344\n190.3995,4.424935\n190.5985,4.424930\n190.6021,4.428491\n190.7789,4.428487\n190.7826,4.432019\n190.9604,4.432974\n190.9632,4.435625\n191.1630,4.436465\n191.1658,4.439095\n191.3426,4.439091\n191.3463,4.442538\n191.5240,4.443366\n191.5259,4.445128\n191.7036,4.445951\n191.7063,4.448524\n191.9062,4.449340\n191.9080,4.451078\n192.0849,4.451074\n192.0868,4.452805\n192.2636,4.452801\n192.2645,4.453613\n192.4643,4.454419\n192.4653,4.455329\n192.6421,4.455325\n192.6430,4.456133\n193.3716,4.455309\n193.3725,4.456116\n193.5687,4.453583\n193.5705,4.455304\n193.7436,4.451851\n193.7455,4.453579\n193.9187,4.450214\n193.9204,4.451847\n194.0927,4.447647\n194.0945,4.449289\n194.2898,4.445890\n194.2917,4.447642\n194.4639,4.443297\n194.4658,4.445059\n194.6371,4.439851\n194.6398,4.442461\n194.8332,4.437221\n194.8360,4.439846\n195.0064,4.433727\n195.0101,4.437217\n195.1796,4.430204\n195.1833,4.433722\n195.3730,4.424813\n195.3776,4.429234\n195.5435,4.418476\n195.5490,4.423941\n195.7139,4.412045\n195.7193,4.417480\n195.8824,4.403587\n195.8897,4.411035\n196.0703,4.392048\n196.0804,4.402556\n196.2316,4.375241\n196.2463,4.391107\n196.3873,4.351387\n196.4075,4.374263\n196.5788,4.342695\n196.5854,4.350353\n196.7456,4.330606\n196.7548,4.341641\n196.9096,4.314694\n196.9216,4.329522\n197.0984,4.301643\n197.1076,4.313428\n197.2633,4.285807\n197.2744,4.300484\n197.4282,4.269372\n197.4401,4.285801\n197.6162,4.253738\n197.6271,4.269365\n197.7820,4.237355\n197.7922,4.252444\n197.9497,4.223269\n197.9588,4.237348\n198.1164,4.207283\n198.1256,4.221881\n198.3062,4.192169\n198.3154,4.207275\n198.4739,4.176512\n198.4830,4.192162\n198.6415,4.160268\n198.6497,4.174772\n198.8395,4.158462\n199.3600,4.096127\n199.5267,4.074324\n199.5359,4.094034\n199.6962,4.057977\n199.7027,4.072367\n199.8878,4.040727\n199.8942,4.055690\n200.0619,4.034105\n200.0637,4.038612\n200.2213,3.990097\n200.2378,4.031957\n200.3880,3.962066\n200.3972,3.987422\n200.5796,3.940776\n200.5869,3.962052\n200.7491,3.918042\n200.7555,3.937779\n200.9177,3.891468\n200.9250,3.915233\n201.1093,3.865916\n201.1157,3.888107\n201.2797,3.842513\n201.2861,3.865900\n201.4501,3.817777\n201.4557,3.839170\n201.6427,3.791544\n201.6481,3.813792\n201.8131,3.763627\n201.8185,3.787312\n201.9844,3.738027\n201.9889,3.759112\n202.1778,3.710820\n202.1823,3.733234\n202.3482,3.676973\n202.3538,3.706286\n202.5204,3.650696\n202.5251,3.676948\n202.6927,3.623413\n202.6964,3.645484\n202.8870,3.593563\n202.8907,3.617163\n203.0602,3.568576\n203.0639,3.593534\n203.2334,3.542062\n203.2362,3.562271\n203.4286,3.512936\n203.4314,3.534513\n203.6028,3.491126\n203.6054,3.512901\n203.7759,3.458240\n203.7786,3.482632\n203.9720,3.432348\n203.9739,3.450090\n204.1461,3.404819\n204.1480,3.423697\n204.3203,3.376639\n204.3229,3.404773\n204.4944,3.345203\n204.4961,3.365551\n204.6905,3.311306\n204.6933,3.345144\n204.8646,3.274545\n204.8674,3.311249\n205.0405,3.260470\n205.0414,3.274483\n205.2367,3.220648\n205.2385,3.247548\n205.4117,3.190039\n205.4136,3.220578\n205.5867,3.157108\n205.5876,3.174812\n205.7838,3.123637\n205.7856,3.157018\n205.9597,3.103577\n205.9607,3.123551\n206.1347,3.065530\n206.1356,3.084923\n206.3328,3.045114\n206.3337,3.065419\n206.5086,3.020966\n206.5096,3.045010\n206.6846,2.998300\n206.6855,3.020857\n206.8605,2.974385\n206.8614,2.998184\n207.2353,2.945676\n207.2363,2.974125\n207.9648,2.945136\n207.9658,2.973620\n208.5184,2.973237\n208.7182,2.996967\n208.8950,2.996851\n208.8959,3.019481\n209.0728,3.019370\n209.0738,3.043500\n209.2506,3.043396\n209.4504,3.063667\n209.6272,3.063568\n209.6281,3.083046\n210.3612,3.154935\n210.5602,3.154844\n210.5621,3.187865\n210.7389,3.187791\n210.7398,3.202505\n210.9166,3.202432\n211.1165,3.218335\n211.1174,3.232065\n211.2943,3.231997\n211.2951,3.245309\n211.6507,3.272187\n211.6516,3.284338\n211.8505,3.284271\n211.8514,3.296093\n212.4068,3.330922\n212.4078,3.342866\n212.5846,3.342814\n212.5864,3.363271\n212.7632,3.363221\n212.7642,3.374320\n212.9632,3.374265\n212.9640,3.383899\n213.1409,3.383851\n213.1426,3.402503\n213.3195,3.402457\n213.3205,3.412608\n213.4982,3.421393\n213.4991,3.430046\n213.6980,3.429998\n213.6990,3.439532\n213.8758,3.439490\n213.8767,3.447793\n214.2544,3.464843\n214.2553,3.472680\n214.4321,3.472641\n214.4330,3.480340\n214.6108,3.488803\n214.6117,3.496223\n214.8106,3.496181\n214.8115,3.503477\n214.9884,3.503441\n214.9893,3.510616\n215.1671,3.518515\n215.1680,3.525448\n215.3669,3.525409\n215.3678,3.532234\n215.5446,3.532200\n215.5456,3.539752\n215.7225,3.539719\n215.7233,3.546324\n215.9002,3.546291\n215.9011,3.552797\n216.1000,3.552761\n216.1010,3.559967\n216.2778,3.559935\n216.4556,3.566210\n216.6545,3.566175\n216.8322,3.572362\n217.2080,3.572296\n217.2089,3.578427\n218.2920,3.578241\n218.4919,3.585005\n219.7740,3.584788\n219.9517,3.590717\n220.5043,3.590624\n220.5052,3.596504\n221.0578,3.596412\n221.0588,3.602934\n221.4346,3.602873\n221.4355,3.608590\n221.6123,3.608562\n221.7900,3.614177\n221.9890,3.614145\n221.9900,3.620408\n222.1668,3.620380\n222.3445,3.625846\n222.5214,3.625818\n222.5223,3.631243\n222.7212,3.631212\n222.7222,3.637236\n222.8990,3.637209\n222.8999,3.642494\n223.0767,3.642468\n223.0776,3.647690\n223.2766,3.647660\n223.2775,3.652820\n223.4543,3.652795\n223.4553,3.658528\n223.6321,3.658502\n223.6330,3.663536\n223.8319,3.663508\n223.8328,3.668484\n224.0097,3.668459\n224.0107,3.673991\n224.1875,3.673966\n224.3873,3.678798\n224.5642,3.678773\n224.5650,3.683579\n224.7419,3.683555\n224.7429,3.688898\n224.9197,3.688875\n224.9206,3.693570\n225.1195,3.693544\n225.4751,3.703311\n225.6740,3.703285\n225.6749,3.707828\n225.8517,3.707806\n226.0295,3.712279\n226.2284,3.712254\n226.2293,3.716705\n226.4061,3.716683\n226.7838,3.725946\n226.9606,3.725924\n226.9615,3.730238\n227.1383,3.730216\n227.1393,3.735018\n227.3162,3.734997\n227.5160,3.739198\n227.6928,3.739177\n227.8706,3.743340\n228.0695,3.743317\n228.0705,3.747977\n228.2473,3.747957\n228.4250,3.752037\n228.6240,3.752014\n228.6249,3.756077\n228.9785,3.756037\n228.9795,3.760563\n229.3553,3.760521\n229.5330,3.764485\n229.9088,3.764443\n230.0865,3.768373\n231.3686,3.768230\n231.5445,3.764260\n232.0963,3.760210\n232.0972,3.764198\n232.4711,3.755637\n232.4721,3.760168\n232.6479,3.755617\n233.1977,3.742713\n233.3958,3.738498\n233.3967,3.742689\n233.5718,3.734245\n233.5726,3.738477\n233.7476,3.729413\n233.7486,3.734224\n233.9235,3.725070\n233.9244,3.729392\n234.1216,3.720680\n234.1225,3.725046\n234.2974,3.715694\n234.4734,3.711210\n234.4743,3.715671\n234.6706,3.702122\n234.6715,3.706677\n234.8464,3.696917\n234.8474,3.702099\n235.0224,3.692234\n235.0232,3.696893\n235.2204,3.687497\n235.2213,3.692208\n235.3963,3.682113\n235.3973,3.687474\n235.5713,3.672391\n235.5722,3.677267\n235.7472,3.666814\n235.7482,3.672366\n235.9452,3.661790\n235.9461,3.666786\n236.1202,3.650954\n236.1212,3.656711\n236.2961,3.645745\n236.2970,3.650928\n236.4942,3.640470\n236.4951,3.645716\n236.6691,3.629081\n236.6701,3.635134\n236.8451,3.623602\n236.8460,3.629054\n237.0422,3.611752\n237.0440,3.623571\n237.2181,3.606048\n237.2190,3.611724\n237.3931,3.593706\n237.3941,3.600268\n237.5911,3.587755\n237.5920,3.593673\n237.7661,3.574874\n237.7671,3.581725\n238.1171,3.555994\n238.1180,3.562358\n238.3142,3.542116\n238.3151,3.548685\n238.4891,3.527784\n238.4910,3.542083\n238.6651,3.520854\n238.6660,3.527750\n238.8621,3.505786\n238.8631,3.513807\n239.0381,3.498492\n239.0390,3.505750\n239.2132,3.483566\n239.2140,3.491075\n239.4111,3.474917\n239.4121,3.483523\n239.5871,3.467081\n239.5879,3.474878\n239.7620,3.449993\n239.7630,3.459102\n239.9601,3.441685\n239.9610,3.449947\n240.1350,3.423545\n240.1360,3.433220\n240.3110,3.414716\n240.3119,3.423501\n240.4869,3.405703\n240.4878,3.414671\n240.6840,3.385954\n240.6859,3.405652\n240.8599,3.376318\n240.8608,3.385907\n241.0359,3.366463\n241.0368,3.376269\n241.2338,3.355101\n241.2348,3.366407\n241.4098,3.344747\n241.4107,3.355051\n241.5857,3.334140\n241.5866,3.344695\n241.7837,3.321888\n241.7847,3.334079\n241.9596,3.310700\n241.9605,3.321833\n242.1356,3.299216\n242.1365,3.310644\n242.3335,3.285923\n242.3345,3.299151\n242.5095,3.273755\n242.5104,3.285863\n242.6863,3.273693\n242.8623,3.261173\n243.0602,3.246642\n243.0612,3.261102\n243.2371,3.246577\n243.4130,3.233237\n243.6111,3.219467\n243.6120,3.233162\n243.7870,3.205254\n243.7879,3.219397\n244.1628,3.205101\n244.3386,3.188538\n244.5155,3.188463\n244.6914,3.173180\n244.8904,3.173093\n245.0663,3.157249\n245.4411,3.138621\n245.4421,3.157078\n245.7948,3.138453\n245.9928,3.121256\n246.3465,3.121082\n246.5446,3.103168\n246.8982,3.102986\n247.0741,3.081925\n247.4499,3.081722\n247.6258,3.062083\n248.3774,3.061658\n248.5533,3.041068\n250.7638,3.039755\n250.9415,3.060205\n251.6709,3.059791\n251.8487,3.079340\n252.6002,3.078931\n252.7780,3.099951\n255.3422,3.098621\n255.5401,3.077330\n256.4464,3.076835\n256.6242,3.097954\n258.6578,3.096894\n258.8356,3.114875\n264.8922,3.111833\n265.0682,3.093537\n265.6208,3.093247\n265.8187,3.071684\n266.9018,3.071085\n267.0999,3.050934\n267.8285,3.029480\n267.8293,3.050511\n268.5570,3.006910\n268.5579,3.029035\n269.1096,3.006556\n269.4835,2.955112\n269.8372,2.954856\n270.0353,2.928330\n270.3879,2.896305\n270.3889,2.928057\n270.7637,2.895994\n270.9397,2.865499\n271.3154,2.865165\n271.4914,2.832340\n271.6682,2.832170\n271.8662,2.791993\n272.4188,2.791411\n272.5947,2.752228\n273.1465,2.708677\n273.1474,2.751590\n273.8759,2.707745\n274.0518,2.653405\n274.8033,2.652316\n274.9793,2.597370\n##END=\n'