b'##TITLE=Pyrimidine, 2,4-dichloro-\n##JCAMP-DX=4.24\n##DATA TYPE=UV/VIS SPECTRUM\n##ORIGIN=INSTITUTE OF ENERGY PROBLEMS OF CHEMICAL PHYSICS, RAS\n##OWNER=INEP CP RAS, NIST OSRD\nCollection (C) 2007 copyright by the U.S. Secretary of Commerce\non behalf of the United States of America. All rights reserved.\n##CAS REGISTRY NO=3934-20-1\n##MOLFORM=C4H2Cl2N2\n##MP=60-61\n##SOURCE REFERENCE=RAS UV No. 18929\n##$NIST SQUIB=1975KOP76\n##$NIST SOURCE=TYUGLMTE\n##SPECTROMETER/DATA SYSTEM=SF-16\n##XUNITS=Wavelength (nm)\n##YUNITS=Logarithm epsilon\n##XFACTOR=1.0\n##YFACTOR=1.0\n##FIRSTX=209.31\n##LASTX=277.92\n##FIRSTY=3.837\n##MAXX=277.92\n##MINX=209.31\n##MAXY=3.837\n##MINY=2.565\n##NPOINTS=70\n##$REF AUTHOR=(editor), Koptyug V.A.\n##$REF JOURNAL=Atlas of Spectra of Aromatic and Heterocyclic Compounds\n##$REF VOLUME=8\n##$REF PAGE=76\n##$REF DATE=1975\n##XYPOINTS=(XY..XY)\n209.31,3.837\n209.80,3.837\n210.29,3.837\n210.78,3.837\n211.27,3.837\n211.76,3.837\n212.25,3.837\n212.74,3.837\n213.23,3.833\n214.21,3.823\n215.19,3.810\n216.17,3.791\n217.15,3.768\n218.13,3.745\n219.11,3.703\n220.09,3.670\n221.07,3.637\n222.05,3.587\n223.03,3.526\n224.01,3.410\n224.99,3.257\n225.97,3.145\n226.95,2.992\n227.93,2.946\n228.91,2.885\n229.89,2.820\n230.87,2.788\n231.85,2.774\n232.83,2.783\n233.81,2.811\n234.79,2.853\n235.77,2.895\n236.75,2.922\n237.73,2.949\n239.69,3.015\n240.67,3.039\n241.65,3.076\n242.63,3.108\n243.61,3.169\n244.59,3.215\n245.57,3.252\n246.55,3.285\n247.53,3.327\n248.51,3.359\n249.49,3.392\n250.47,3.415\n251.45,3.457\n252.43,3.480\n253.41,3.498\n254.39,3.526\n255.37,3.545\n256.35,3.563\n257.33,3.568\n258.31,3.568\n259.29,3.568\n260.27,3.563\n261.25,3.554\n262.24,3.545\n263.22,3.517\n264.20,3.484\n266.16,3.424\n267.14,3.378\n268.12,3.331\n269.10,3.234\n271.06,3.039\n272.04,2.964\n273.02,2.895\n275.96,2.727\n276.94,2.634\n277.92,2.565\n##END=\n'