b'##TITLE=(E)-Dimethyldiazene\n##JCAMP-DX=4.24\n##DATA TYPE=UV/VIS SPECTRUM\n##ORIGIN=INSTITUTE OF ENERGY PROBLEMS OF CHEMICAL PHYSICS, RAS\n##OWNER=INEP CP RAS, NIST OSRD\nCollection (C) 2007 copyright by the U.S. Secretary of Commerce\non behalf of the United States of America. All rights reserved.\n##CAS REGISTRY NO=4143-41-3\n##MOLFORM=C2H6N2\n##SOURCE REFERENCE=RAS UV No. 19769\n##$NIST SQUIB=1967KOR/RAUc7/1\n##$NIST SOURCE=TYUGLMTE\n##SPECTROMETER/DATA SYSTEM=Zeiss PMQ II\n##XUNITS=Wavelength (nm)\n##YUNITS=Logarithm epsilon\n##XFACTOR=1.0\n##YFACTOR=1.0\n##FIRSTX=215.56\n##LASTX=415.52\n##FIRSTY=1.915\n##MAXX=415.52\n##MINX=215.56\n##MAXY=1.915\n##MINY=-0.352\n##NPOINTS=133\n##$REF AUTHOR=Kortum, G.; Rau, H.\n##$REF JOURNAL=UV atlas of organic compounds\n##$REF VOLUME=3\n##$REF PAGE=C7/1\n##$REF DATE=1967\n##$REF PUBLISHER=Plenum Press\n##$REF LOCATION=New York\n##XYPOINTS=(XY..XY)\n215.56,1.915\n215.66,1.915\n215.76,1.915\n216.36,1.887\n217.16,1.853\n217.98,1.823\n218.80,1.791\n219.62,1.763\n220.45,1.742\n221.29,1.729\n222.13,1.717\n222.98,1.710\n223.84,1.710\n224.71,1.714\n225.58,1.719\n226.45,1.725\n227.34,1.723\n228.23,1.734\n229.13,1.744\n230.03,1.753\n230.94,1.761\n231.86,1.766\n232.79,1.770\n233.72,1.772\n234.67,1.772\n235.62,1.772\n236.57,1.770\n237.54,1.763\n238.51,1.761\n239.49,1.753\n240.48,1.744\n241.48,1.732\n242.48,1.721\n243.50,1.710\n244.52,1.691\n245.55,1.678\n246.59,1.659\n247.64,1.638\n248.70,1.610\n249.77,1.583\n250.84,1.555\n251.93,1.514\n253.02,1.491\n254.13,1.461\n255.24,1.417\n256.36,1.368\n257.50,1.314\n258.64,1.255\n259.79,1.195\n260.96,1.125\n262.13,1.050\n263.32,0.970\n264.52,0.887\n265.72,0.787\n266.94,0.704\n268.17,0.612\n269.41,0.518\n270.66,0.427\n271.93,0.331\n273.20,0.231\n274.49,0.142\n275.79,0.061\n277.10,-0.020\n278.43,-0.084\n279.77,-0.146\n281.12,-0.195\n282.48,-0.212\n283.86,-0.218\n285.25,-0.214\n286.65,-0.195\n288.07,-0.156\n289.50,-0.114\n290.95,-0.065\n292.41,-0.014\n293.89,0.042\n295.38,0.091\n296.88,0.144\n298.40,0.197\n299.94,0.248\n301.49,0.269\n303.06,0.308\n304.65,0.357\n306.25,0.408\n307.87,0.450\n309.51,0.497\n311.16,0.540\n312.83,0.582\n314.52,0.623\n316.23,0.663\n317.96,0.697\n319.70,0.735\n321.47,0.770\n323.25,0.808\n325.06,0.840\n326.88,0.870\n328.73,0.901\n330.59,0.931\n332.48,0.959\n334.39,0.984\n336.32,1.002\n338.28,1.025\n340.25,1.044\n342.25,1.059\n344.28,1.074\n346.32,1.085\n348.40,1.095\n350.49,1.104\n352.61,1.112\n354.76,1.114\n356.94,1.114\n359.14,1.112\n361.37,1.102\n363.62,1.087\n365.91,1.067\n368.22,1.044\n370.57,1.021\n372.94,0.991\n375.34,0.953\n377.78,0.916\n380.25,0.870\n382.75,0.821\n385.28,0.767\n387.84,0.706\n390.44,0.644\n393.08,0.565\n395.75,0.478\n398.46,0.367\n401.21,0.227\n403.99,0.084\n406.81,-0.039\n409.67,-0.097\n412.58,-0.218\n415.52,-0.352\n##END=\n'