b'##TITLE=Methanamine, N-methyl-N-nitro-\n##JCAMP-DX=4.24\n##DATA TYPE=UV/VIS SPECTRUM\n##ORIGIN=INSTITUTE OF ENERGY PROBLEMS OF CHEMICAL PHYSICS, RAS\n##OWNER=INEP CP RAS, NIST OSRD\nCollection (C) 2007 copyright by the U.S. Secretary of Commerce\non behalf of the United States of America. All rights reserved.\n##CAS REGISTRY NO=4164-28-7\n##MOLFORM=C2H6N2O2\n##MP=58\n##BP=187\n##SOURCE REFERENCE=RAS UV No. 22255\n##$NIST SQUIB=1978AND/240\n##$NIST SOURCE=TYUGLMTE\n##SPECTROMETER/DATA SYSTEM=SFD-2\n##XUNITS=Wavelength (nm)\n##YUNITS=Logarithm epsilon\n##XFACTOR=1.0\n##YFACTOR=1.0\n##FIRSTX=227.419\n##LASTX=303.39\n##FIRSTY=3.668\n##MAXX=303.39\n##MINX=227.419\n##MAXY=3.703\n##MINY=1.879\n##NPOINTS=39\n##$REF AUTHOR=Andreev, S.A.; et al.\n##$REF JOURNAL=Zhur. Organ. Khim.\n##$REF VOLUME=14\n##$REF PAGE=240\n##$REF DATE=1978\n##XYPOINTS=(XY..XY)\n227.419,3.668\n229.419,3.685\n231.419,3.695\n233.419,3.701\n235.419,3.703\n237.419,3.702\n239.419,3.696\n241.419,3.688\n243.419,3.676\n245.419,3.661\n247.419,3.642\n249.419,3.620\n251.419,3.595\n253.419,3.565\n255.419,3.532\n257.419,3.495\n259.419,3.454\n261.419,3.409\n263.419,3.360\n265.419,3.307\n267.419,3.251\n269.419,3.192\n271.419,3.130\n273.419,3.065\n275.419,2.999\n277.419,2.930\n279.419,2.860\n281.419,2.789\n283.419,2.717\n285.419,2.645\n287.419,2.571\n289.419,2.497\n291.390,2.422\n293.390,2.345\n295.390,2.264\n297.390,2.176\n299.390,2.080\n301.390,1.978\n303.390,1.879\n##END=\n'