b'##TITLE=Crotonaldehyde\n##JCAMP-DX=4.24\n##DATA TYPE=UV/VIS SPECTRUM\n##ORIGIN=INSTITUTE OF ENERGY PROBLEMS OF CHEMICAL PHYSICS, RAS\n##OWNER=INEP CP RAS, NIST OSRD\nCollection (C) 2007 copyright by the U.S. Secretary of Commerce\non behalf of the United States of America. All rights reserved.\n##CAS REGISTRY NO=4170-30-3\n##MOLFORM=C4H6O\n##SOURCE REFERENCE=RAS UV No. 19\n##$NIST SQUIB=1948BLA534-545\n##$NIST SOURCE=TSGMTE\n##SPECTROMETER/DATA SYSTEM=n.i.g.\n##XUNITS=Wavelength (nm)\n##YUNITS=Logarithm epsilon\n##XFACTOR=1.000000\n##YFACTOR=1.000000\n##FIRSTX=380.5118\n##LASTX=238.8000\n##FIRSTY=0.420055\n##MAXX=380.512\n##MINX=238.8\n##MAXY=1.71986\n##MINY=0.188647\n##NPOINTS=422\n##$REF AUTHOR=Blacet, F.E.\n##$REF TITLE=The photochemistry of the aldehydes\n##$REF JOURNAL=J. Phys. Chem.\n##$REF VOLUME=52\n##$REF PAGE=534-545\n##$REF DATE=1948\n##XYPOINTS=(XY..XY)\n380.5118,0.420055\n379.4820,0.441664\n379.1003,0.464430\n378.5189,0.547369\n378.2909,0.553203\n378.2507,0.570788\n378.2107,0.588317\n378.1709,0.605747\n378.1526,0.613726\n378.0735,0.621457\n377.9825,0.629185\n377.8855,0.636909\n377.8855,0.636909\n377.6990,0.636638\n377.6669,0.638988\n377.5127,0.636307\n377.4266,0.638938\n377.3519,0.577526\n377.3269,0.635876\n377.3269,0.635876\n377.3212,0.548868\n377.3175,0.627827\n377.3025,0.619667\n377.2933,0.603718\n377.2757,0.611458\n376.8109,0.522900\n376.5961,0.523798\n375.8597,0.574968\n375.3884,0.604140\n374.8085,0.636368\n373.5102,0.593950\n373.3837,0.581665\n373.1489,0.593353\n371.5292,0.691400\n371.5292,0.691400\n371.3474,0.691762\n371.1661,0.692027\n370.9850,0.692239\n370.9850,0.692239\n370.3109,0.612318\n369.8815,0.620927\n368.6709,0.684073\n368.2346,0.685867\n368.1342,0.685312\n368.0341,0.684648\n367.9342,0.683929\n367.9342,0.683929\n367.5032,0.637149\n367.2949,0.639925\n366.4091,0.651879\n365.8064,0.666181\n365.3246,0.679455\n365.1299,0.696994\n365.1123,0.685285\n364.8430,0.705838\n363.8102,0.712498\n363.8102,0.712498\n363.5846,0.720201\n363.4880,0.729489\n362.7846,0.809068\n362.4765,0.851142\n362.2619,0.879434\n362.1169,0.896747\n362.0179,0.905893\n361.8638,0.910907\n361.8638,0.910907\n361.8334,0.910197\n361.7922,0.909486\n361.7456,0.908774\n361.5658,0.900995\n361.2954,0.921525\n361.0148,0.941948\n360.2125,0.965037\n360.2125,0.965037\n359.4598,0.966222\n359.2706,0.981909\n358.8973,1.027207\n358.8972,1.035918\n358.6764,1.029043\n358.6697,1.032329\n358.6629,1.035610\n358.6562,1.038894\n358.6480,1.042883\n358.2765,0.988826\n358.1887,0.981705\n358.0905,0.974479\n358.0905,0.974479\n358.0521,0.981034\n358.0086,0.987537\n356.5030,0.998804\n356.3582,1.003241\n356.3582,1.003241\n355.5193,0.995095\n355.1905,0.994326\n354.3673,1.004962\n354.1113,1.003667\n353.6125,0.994950\n353.0449,1.021582\n352.8610,1.031881\n352.8610,1.031881\n352.7777,1.025527\n352.1280,1.014134\n352.1280,1.014134\n351.9360,1.016841\n351.7393,1.019444\n351.1867,1.017134\n350.9687,1.015322\n350.6917,1.015016\n350.6917,1.015016\n350.5891,1.019913\n350.4816,1.024761\n350.3640,1.029497\n350.3640,1.029497\n350.0195,1.029428\n349.6757,1.029355\n349.3325,1.029286\n349.3325,1.029286\n349.0902,1.041136\n348.9316,1.046640\n348.7206,1.050519\n348.0686,1.046628\n347.7953,1.058540\n347.2298,1.082362\n347.2298,1.082362\n346.9586,1.082060\n346.6830,1.081707\n346.3981,1.081250\n346.3981,1.081250\n346.3222,1.093905\n346.2364,1.106561\n346.1456,1.119216\n346.1456,1.119216\n345.9172,1.120488\n345.6956,1.120929\n345.2914,1.120913\n345.2914,1.120913\n344.9908,1.142927\n344.8296,1.151777\n344.6691,1.155047\n344.6691,1.155047\n344.4715,1.152823\n344.3064,1.151756\n344.0326,1.150922\n344.0326,1.150922\n343.9257,1.163626\n343.7514,1.175532\n343.3247,1.185975\n343.3247,1.185975\n343.0820,1.180736\n342.9706,1.176149\n342.8948,1.168282\n342.8948,1.168282\n342.7839,1.168259\n342.6682,1.168235\n342.5428,1.168209\n342.5428,1.168209\n342.4827,1.173358\n342.4129,1.178508\n342.3382,1.183654\n341.9470,1.193428\n341.9051,1.188951\n341.8535,1.184419\n341.7973,1.179782\n341.7973,1.179782\n341.6815,1.179759\n341.5560,1.179730\n341.4367,1.173839\n341.4329,1.175880\n341.4293,1.177816\n341.4258,1.179704\n341.4258,1.179704\n341.2512,1.179667\n341.2487,1.181003\n341.2464,1.182238\n341.2442,1.183418\n341.0406,1.187366\n340.9832,1.191334\n340.9163,1.195249\n340.8447,1.199058\n340.6746,1.196908\n340.6142,1.194314\n340.5538,1.191719\n340.4934,1.189125\n340.3307,1.183221\n340.1894,1.185772\n340.0386,1.188321\n339.8831,1.190869\n339.8831,1.190869\n339.7695,1.190306\n339.6466,1.189636\n339.5191,1.188914\n339.5191,1.188914\n339.3759,1.184657\n339.2327,1.180401\n339.0896,1.176146\n338.8331,1.175152\n338.4958,1.178580\n338.2817,1.180054\n338.0073,1.180840\n338.0073,1.180840\n337.9018,1.179572\n337.7919,1.178200\n337.6726,1.176774\n337.6726,1.176774\n337.4358,1.177427\n337.1946,1.178079\n336.9442,1.178727\n335.9884,1.179454\n335.9024,1.179836\n335.8119,1.180112\n335.7121,1.180332\n334.4890,1.181935\n334.3240,1.180014\n331.2875,1.195996\n331.1351,1.200883\n330.9829,1.205716\n330.8310,1.210444\n330.0673,1.202524\n329.9394,1.204389\n329.8206,1.208866\n329.6093,1.219786\n329.4499,1.217871\n329.4048,1.216923\n329.3507,1.215970\n329.2922,1.215019\n328.4297,1.221625\n328.2510,1.220704\n328.1233,1.218911\n327.9371,1.214703\n327.6976,1.213475\n327.6148,1.214854\n327.5321,1.216182\n327.4496,1.217408\n326.7751,1.213260\n326.7716,1.215302\n326.7683,1.217239\n326.7651,1.219123\n326.4618,1.209429\n326.4595,1.210768\n326.4574,1.212001\n326.4554,1.213183\n326.4554,1.213183\n326.2345,1.213592\n326.0095,1.213948\n325.7762,1.214197\n325.7762,1.214197\n325.7023,1.210893\n325.6284,1.207591\n325.5545,1.204288\n325.5545,1.204288\n325.3951,1.204250\n325.2314,1.204212\n325.0591,1.204172\n325.0591,1.204172\n325.0346,1.206502\n325.0058,1.208783\n324.9684,1.210955\n324.9684,1.210955\n324.8305,1.210680\n324.6927,1.210351\n324.5552,1.209917\n324.5552,1.209917\n324.4816,1.206780\n324.4081,1.203539\n324.3348,1.200243\n324.3348,1.200243\n324.0134,1.200566\n323.6841,1.200785\n323.3512,1.200946\n323.3512,1.200946\n323.3336,1.199300\n323.3117,1.197653\n323.2811,1.196002\n322.3847,1.194847\n322.2311,1.193169\n322.0733,1.191487\n321.9070,1.189805\n321.1051,1.194539\n321.0056,1.192871\n320.8976,1.191202\n320.7853,1.189532\n320.1460,1.192191\n319.9094,1.191255\n319.7682,1.189457\n319.6013,1.185253\n318.8650,1.191878\n318.7691,1.191853\n318.6691,1.191828\n318.5606,1.191803\n318.5606,1.191803\n318.5433,1.190320\n318.5219,1.188734\n318.4922,1.187092\n318.4922,1.187092\n318.1793,1.187501\n317.9547,1.188349\n317.6933,1.188771\n317.6933,1.188771\n317.6218,1.186173\n317.5504,1.183574\n317.4790,1.180974\n316.6807,1.185468\n315.7793,1.173673\n314.7237,1.160951\n310.7916,1.121731\n309.4578,1.111293\n308.0590,1.100271\n306.6463,1.088537\n305.2689,1.075963\n303.9743,1.062424\n302.8084,1.047793\n301.8161,1.031937\n301.0413,1.014730\n299.4840,0.979771\n298.4631,0.958860\n297.2254,0.935422\n295.9465,0.913554\n292.9801,0.867585\n292.3335,0.854907\n291.4168,0.834796\n291.4168,0.834796\n290.2548,0.817446\n289.0347,0.794509\n287.9460,0.770160\n285.2546,0.706274\n284.4659,0.685419\n283.6825,0.664275\n282.8881,0.643186\n282.0669,0.622515\n281.2033,0.602613\n281.2033,0.602613\n281.1130,0.598112\n280.9411,0.593164\n280.8509,0.588653\n280.8509,0.588653\n280.1897,0.573915\n279.0674,0.545579\n276.6488,0.477150\n275.9304,0.458502\n275.1821,0.440059\n272.8084,0.385588\n271.9901,0.367654\n271.1661,0.349763\n270.3409,0.331913\n269.5188,0.314057\n268.7042,0.296204\n268.7042,0.296204\n267.9169,0.283527\n267.1630,0.269163\n264.9835,0.235907\n264.6963,0.231164\n264.4039,0.226394\n262.6671,0.208092\n262.4210,0.205718\n262.1696,0.203278\n261.6334,0.200029\n261.4808,0.198492\n261.3257,0.196867\n261.1651,0.195180\n260.7984,0.191982\n259.4620,0.188647\n258.2280,0.189883\n257.1284,0.196149\n256.1940,0.207984\n255.4556,0.225878\n254.1598,0.280237\n253.9154,0.292367\n253.6780,0.304383\n253.4314,0.317102\n253.1597,0.331387\n252.8469,0.348110\n252.4773,0.368101\n252.0354,0.392222\n251.5063,0.421324\n250.8750,0.456275\n249.4294,0.543720\n249.2386,0.557868\n248.9724,0.578020\n248.6179,0.605424\n248.1625,0.641286\n247.5938,0.686824\n246.5937,0.765117\n246.3517,0.787042\n246.0920,0.809715\n245.8244,0.832905\n245.5588,0.856391\n245.3050,0.879944\n245.0724,0.903334\n244.8707,0.926342\n244.7095,0.948741\n244.5981,0.970305\n244.2165,1.017809\n243.9682,1.042461\n243.7175,1.067350\n243.4726,1.092285\n243.2420,1.117066\n243.0338,1.141506\n242.8562,1.165408\n242.7623,1.171235\n242.7604,1.173277\n242.7586,1.175213\n242.7568,1.177101\n242.6613,1.184805\n242.5218,1.203685\n242.3802,1.222459\n241.7451,1.296452\n241.4185,1.340357\n241.1558,1.375854\n240.9487,1.404067\n240.7891,1.426114\n240.6687,1.443117\n240.1461,1.514073\n240.0027,1.536454\n239.8586,1.558833\n239.7141,1.581212\n239.5693,1.603590\n239.4243,1.625970\n239.2792,1.648347\n239.1341,1.670726\n239.0450,1.674442\n238.9249,1.697154\n238.8000,1.719864\n##END=\n'