b'##TITLE=Thiirane\n##JCAMP-DX=4.24\n##DATA TYPE=UV/VIS SPECTRUM\n##ORIGIN=INSTITUTE OF ENERGY PROBLEMS OF CHEMICAL PHYSICS, RAS\n##OWNER=INEP CP RAS, NIST OSRD\nCollection (C) 2007 copyright by the U.S. Secretary of Commerce\non behalf of the United States of America. All rights reserved.\n##CAS REGISTRY NO=420-12-2\n##MOLFORM=C2H4S\n##BP=54/ 760 mm\n##SOURCE REFERENCE=RAS UV No. 19865\n##$NIST SQUIB=1971SEWi/8\n##$NIST SOURCE=TYUGLMTE\n##SPECTROMETER/DATA SYSTEM=Beckman DK 2\n##XUNITS=Wavelength (nm)\n##YUNITS=Logarithm epsilon\n##XFACTOR=1.0\n##YFACTOR=1.0\n##FIRSTX=216.05\n##LASTX=292.35\n##FIRSTY=2.728\n##MAXX=292.35\n##MINX=216.05\n##MAXY=2.728\n##MINY=0.364\n##NPOINTS=95\n##$REF AUTHOR=Sewell, P.R.\n##$REF JOURNAL=UV atlas of organic compounds\n##$REF VOLUME=5\n##$REF PAGE=I/8\n##$REF DATE=1971\n##XYPOINTS=(XY..XY)\n216.05,2.728\n216.59,2.694\n217.15,2.656\n217.76,2.616\n218.37,2.571\n218.98,2.524\n219.60,2.479\n220.23,2.434\n220.85,2.390\n221.48,2.345\n222.12,2.296\n222.75,2.253\n223.39,2.206\n224.04,2.153\n224.69,2.106\n225.34,2.063\n225.99,2.016\n226.65,1.971\n227.32,1.924\n227.98,1.884\n228.66,1.837\n229.33,1.792\n230.01,1.745\n230.69,1.705\n231.38,1.666\n232.07,1.621\n232.77,1.587\n233.47,1.555\n234.17,1.525\n234.88,1.500\n235.59,1.476\n236.31,1.455\n237.03,1.440\n237.76,1.429\n238.49,1.425\n239.22,1.425\n239.96,1.427\n240.70,1.427\n241.45,1.431\n242.20,1.436\n242.96,1.442\n243.72,1.446\n244.49,1.455\n245.26,1.461\n246.04,1.468\n246.82,1.474\n247.61,1.483\n248.40,1.491\n249.20,1.495\n250.00,1.504\n250.81,1.512\n251.62,1.521\n252.44,1.530\n253.26,1.538\n254.09,1.544\n254.92,1.553\n255.76,1.555\n256.61,1.559\n257.46,1.562\n258.31,1.562\n259.18,1.562\n260.04,1.557\n260.92,1.555\n261.80,1.549\n262.68,1.540\n263.57,1.534\n264.47,1.523\n265.38,1.508\n266.29,1.493\n267.20,1.468\n268.12,1.442\n269.05,1.410\n269.99,1.378\n270.93,1.342\n271.88,1.303\n272.83,1.263\n273.80,1.222\n274.76,1.177\n275.74,1.137\n276.72,1.081\n277.71,1.032\n278.71,0.987\n279.71,0.936\n280.72,0.889\n281.74,0.844\n282.77,0.798\n283.80,0.751\n284.84,0.704\n285.89,0.657\n286.95,0.608\n288.01,0.554\n289.08,0.509\n290.16,0.460\n291.25,0.411\n292.35,0.364\n##END=\n'