b'##TITLE=2-Amino-5-nitropyridine\n##JCAMP-DX=4.24\n##DATA TYPE=UV/VIS SPECTRUM\n##ORIGIN=INSTITUTE OF ENERGY PROBLEMS OF CHEMICAL PHYSICS, RAS\n##OWNER=INEP CP RAS, NIST OSRD\nCollection (C) 2007 copyright by the U.S. Secretary of Commerce\non behalf of the United States of America. All rights reserved.\n##CAS REGISTRY NO=4214-76-0\n##MOLFORM=C5H5N3O2\n##MP=190-191\n##SOURCE REFERENCE=RAS UV No. 19137\n##$NIST SQUIB=1967LAN237\n##$NIST SOURCE=TYUGLMTE\n##SPECTROMETER/DATA SYSTEM=Unicam SP 700\n##XUNITS=Wavelength (nm)\n##YUNITS=Logarithm epsilon\n##XFACTOR=1.0\n##YFACTOR=1.0\n##FIRSTX=206.93\n##LASTX=481.91\n##FIRSTY=4.088\n##MAXX=481.91\n##MINX=206.93\n##MAXY=4.206\n##MINY=1.91\n##NPOINTS=259\n##$REF AUTHOR=Lang (editor), L.\n##$REF JOURNAL=Absorption Spectra in the Ultraviolet and Visible Region\n##$REF VOLUME=8\n##$REF PAGE=237\n##$REF DATE=1967\n##XYPOINTS=(XY..XY)\n206.93,4.088\n207.95,4.064\n208.96,4.044\n209.98,4.023\n210.99,3.999\n212.18,3.979\n213.19,3.959\n214.21,3.938\n215.39,3.918\n216.40,3.898\n217.59,3.877\n218.60,3.854\n219.79,3.837\n220.97,3.816\n222.15,3.796\n223.51,3.779\n224.69,3.759\n226.04,3.742\n227.40,3.725\n228.75,3.708\n230.10,3.691\n231.45,3.677\n232.98,3.671\n234.50,3.660\n236.02,3.650\n237.54,3.643\n239.06,3.633\n240.59,3.626\n242.11,3.620\n243.63,3.613\n245.15,3.606\n246.67,3.596\n248.20,3.589\n249.72,3.579\n251.07,3.565\n252.42,3.548\n253.78,3.538\n255.13,3.521\n256.48,3.504\n257.67,3.484\n258.51,3.460\n259.36,3.437\n260.03,3.409\n260.71,3.382\n261.39,3.355\n261.89,3.328\n262.57,3.301\n263.25,3.274\n263.75,3.247\n264.26,3.219\n264.77,3.192\n265.28,3.162\n265.61,3.131\n266.12,3.104\n266.97,3.080\n267.47,3.053\n268.15,3.026\n269.00,2.999\n269.50,2.972\n270.35,2.948\n271.20,2.921\n272.21,2.897\n273.06,2.874\n274.07,2.850\n275.08,2.826\n276.27,2.806\n277.62,2.789\n278.97,2.772\n280.33,2.758\n281.85,2.758\n283.20,2.772\n284.39,2.789\n285.57,2.806\n286.75,2.823\n287.94,2.843\n288.95,2.863\n289.97,2.887\n290.98,2.907\n292.00,2.931\n293.01,2.955\n294.19,2.975\n295.21,2.999\n296.22,3.023\n297.41,3.043\n298.42,3.067\n299.44,3.087\n300.45,3.111\n301.47,3.135\n302.65,3.155\n303.66,3.179\n304.68,3.199\n305.86,3.219\n306.88,3.240\n307.89,3.264\n309.08,3.284\n310.26,3.304\n311.27,3.328\n312.46,3.348\n313.64,3.369\n314.66,3.392\n315.84,3.413\n316.85,3.433\n317.87,3.453\n318.88,3.474\n319.90,3.494\n321.08,3.511\n322.10,3.535\n323.11,3.555\n324.30,3.576\n325.48,3.596\n326.66,3.616\n327.68,3.637\n328.86,3.657\n330.05,3.674\n331.23,3.694\n332.41,3.715\n333.43,3.735\n334.61,3.755\n335.79,3.772\n336.98,3.789\n337.99,3.810\n339.18,3.830\n340.36,3.850\n341.54,3.871\n342.73,3.888\n343.91,3.905\n345.26,3.921\n346.62,3.938\n347.80,3.955\n349.15,3.969\n350.34,3.986\n351.69,4.003\n353.04,4.016\n354.40,4.033\n355.75,4.047\n357.10,4.061\n358.46,4.071\n359.64,4.088\n360.99,4.101\n362.34,4.115\n363.87,4.122\n365.22,4.135\n366.57,4.145\n368.09,4.152\n369.45,4.162\n370.97,4.169\n372.32,4.179\n373.84,4.183\n375.37,4.186\n376.89,4.193\n378.41,4.196\n379.93,4.203\n381.45,4.203\n382.98,4.206\n384.50,4.206\n386.02,4.203\n387.54,4.203\n389.06,4.203\n390.59,4.196\n392.11,4.189\n393.63,4.183\n395.15,4.172\n396.67,4.166\n398.03,4.152\n399.55,4.142\n400.90,4.125\n402.25,4.115\n403.61,4.105\n404.96,4.088\n406.31,4.074\n407.67,4.061\n409.02,4.044\n410.37,4.027\n411.72,4.010\n412.91,3.989\n414.09,3.972\n415.28,3.955\n416.46,3.935\n417.64,3.915\n418.83,3.898\n420.01,3.877\n421.03,3.857\n422.04,3.837\n423.39,3.820\n424.41,3.799\n425.42,3.776\n426.61,3.755\n427.62,3.735\n428.64,3.711\n429.82,3.691\n430.83,3.667\n431.85,3.643\n432.86,3.623\n433.88,3.599\n434.89,3.579\n435.91,3.555\n436.92,3.531\n437.94,3.511\n438.78,3.487\n439.80,3.464\n440.81,3.443\n441.66,3.420\n442.67,3.396\n443.69,3.375\n444.70,3.352\n445.55,3.328\n446.56,3.304\n447.41,3.280\n448.42,3.257\n449.27,3.230\n450.28,3.206\n451.13,3.179\n451.97,3.155\n452.82,3.128\n453.66,3.104\n454.51,3.080\n455.36,3.057\n456.20,3.030\n457.05,3.002\n457.89,2.975\n458.74,2.948\n459.41,2.921\n460.26,2.897\n460.94,2.870\n461.78,2.843\n462.63,2.816\n463.30,2.789\n463.98,2.762\n464.83,2.738\n465.33,2.711\n466.01,2.684\n466.85,2.660\n467.36,2.633\n468.04,2.606\n468.71,2.578\n469.22,2.551\n469.90,2.524\n470.57,2.497\n471.08,2.470\n471.76,2.443\n472.44,2.416\n472.94,2.389\n473.62,2.361\n474.13,2.334\n474.63,2.307\n475.14,2.280\n475.99,2.253\n476.49,2.222\n477.00,2.195\n477.51,2.168\n478.02,2.141\n478.52,2.114\n479.03,2.087\n479.54,2.056\n480.05,2.029\n480.55,2.002\n481.06,1.971\n481.57,1.941\n481.91,1.910\n##END=\n'