b'##TITLE=2-Pyridinamine, 3-nitro-\n##JCAMP-DX=4.24\n##DATA TYPE=UV/VIS SPECTRUM\n##ORIGIN=INSTITUTE OF ENERGY PROBLEMS OF CHEMICAL PHYSICS, RAS\n##OWNER=INEP CP RAS, NIST OSRD\nCollection (C) 2007 copyright by the U.S. Secretary of Commerce\non behalf of the United States of America. All rights reserved.\n##CAS REGISTRY NO=4214-75-9\n##MOLFORM=C5H5N3O2\n##MP=163-164\n##SOURCE REFERENCE=RAS UV No. 18511\n##$NIST SQUIB=1981HIL/ELB162\n##$NIST SOURCE=TYUGLMTE\n##SPECTROMETER/DATA SYSTEM=Beckman DK\n##XUNITS=Wavelength (nm)\n##YUNITS=Logarithm epsilon\n##XFACTOR=1.0\n##YFACTOR=1.0\n##FIRSTX=184.74\n##LASTX=417.16\n##FIRSTY=4.015\n##MAXX=417.16\n##MINX=184.74\n##MAXY=4.055\n##MINY=3.126\n##NPOINTS=185\n##$REF AUTHOR=Hilal, R.; El-Basil, S.\n##$REF JOURNAL=Z. phys. Chem. (Leipzig)\n##$REF VOLUME=262\n##$REF PAGE=162\n##$REF DATE=1981\n##XYPOINTS=(XY..XY)\n184.74,4.015\n185.06,4.014\n185.38,4.013\n185.69,4.012\n186.01,4.011\n186.32,4.010\n186.64,4.009\n186.96,4.008\n187.27,4.007\n188.22,3.999\n189.49,3.992\n190.75,3.988\n192.02,3.985\n193.28,3.982\n194.55,3.981\n195.81,3.979\n197.08,3.979\n198.34,3.979\n199.64,3.979\n200.87,3.982\n202.16,3.985\n203.49,3.990\n204.68,3.995\n205.93,4.001\n207.19,4.006\n208.46,4.012\n209.72,4.019\n210.99,4.021\n212.16,4.021\n213.48,4.019\n214.78,4.015\n216.05,4.005\n217.31,3.993\n218.58,3.979\n219.84,3.967\n221.11,3.944\n222.37,3.914\n223.64,3.879\n224.90,3.844\n226.04,3.818\n227.43,3.788\n228.70,3.766\n229.83,3.749\n231.10,3.732\n232.49,3.714\n233.76,3.700\n235.02,3.682\n236.29,3.666\n237.55,3.649\n238.78,3.634\n240.08,3.622\n241.34,3.608\n242.61,3.596\n243.87,3.583\n245.10,3.573\n246.40,3.562\n247.43,3.552\n248.93,3.537\n250.16,3.525\n251.46,3.514\n252.73,3.502\n253.72,3.494\n255.08,3.484\n256.43,3.475\n259.05,3.457\n260.32,3.449\n261.79,3.441\n264.11,3.429\n265.34,3.424\n267.09,3.417\n269.17,3.411\n270.38,3.410\n271.70,3.410\n274.23,3.411\n275.50,3.413\n276.84,3.417\n278.26,3.423\n279.61,3.431\n280.55,3.438\n281.82,3.448\n283.29,3.462\n284.35,3.473\n285.61,3.487\n286.88,3.502\n288.14,3.518\n289.41,3.532\n290.67,3.545\n291.94,3.560\n293.20,3.572\n294.47,3.596\n295.73,3.615\n297.00,3.633\n298.26,3.653\n299.53,3.677\n300.79,3.692\n302.06,3.710\n303.32,3.727\n304.59,3.740\n305.85,3.753\n307.12,3.769\n308.38,3.784\n309.65,3.803\n310.91,3.816\n312.18,3.831\n313.44,3.848\n314.71,3.859\n315.97,3.873\n317.24,3.887\n318.50,3.902\n319.77,3.915\n321.03,3.926\n322.29,3.939\n323.56,3.950\n324.82,3.964\n326.09,3.974\n327.35,3.985\n328.62,3.994\n329.88,4.005\n331.15,4.012\n332.41,4.018\n333.68,4.025\n334.94,4.031\n336.21,4.035\n337.47,4.039\n338.74,4.044\n340.00,4.047\n341.27,4.051\n342.53,4.053\n343.80,4.054\n345.06,4.055\n346.33,4.054\n348.86,4.052\n350.12,4.051\n351.39,4.049\n352.65,4.047\n353.92,4.043\n355.18,4.040\n356.45,4.037\n357.71,4.033\n358.98,4.029\n360.24,4.025\n361.47,4.019\n362.77,4.014\n364.03,4.008\n365.30,4.001\n366.56,3.993\n367.80,3.986\n369.09,3.978\n370.35,3.969\n371.62,3.961\n372.89,3.951\n374.15,3.943\n375.42,3.928\n376.68,3.915\n377.95,3.896\n379.21,3.878\n380.48,3.854\n381.74,3.837\n383.01,3.817\n384.27,3.797\n385.54,3.773\n386.80,3.739\n388.07,3.710\n389.33,3.678\n390.60,3.652\n391.86,3.626\n393.13,3.601\n394.39,3.577\n395.66,3.553\n396.92,3.530\n398.19,3.508\n399.45,3.484\n400.71,3.461\n401.98,3.443\n403.24,3.417\n404.51,3.391\n405.53,3.368\n407.04,3.341\n408.24,3.318\n409.57,3.292\n410.83,3.265\n412.10,3.239\n413.36,3.211\n414.63,3.181\n417.16,3.126\n##END=\n'