b'##TITLE=2-Chloro-5-nitropyridine\n##JCAMP-DX=4.24\n##DATA TYPE=UV/VIS SPECTRUM\n##ORIGIN=INSTITUTE OF ENERGY PROBLEMS OF CHEMICAL PHYSICS, RAS\n##OWNER=INEP CP RAS, NIST OSRD\nCollection (C) 2007 copyright by the U.S. Secretary of Commerce\non behalf of the United States of America. All rights reserved.\n##CAS REGISTRY NO=4548-45-2\n##MOLFORM=C5H3ClN2O2\n##MP=107-108\n##SOURCE REFERENCE=RAS UV No. 14582\n##$NIST SQUIB=1968TOM/SKR0795\n##$NIST SOURCE=TYUGLMTE\n##SPECTROMETER/DATA SYSTEM=Unicam SP 700\n##XUNITS=Wavelength (nm)\n##YUNITS=Logarithm epsilon\n##XFACTOR=1.0\n##YFACTOR=1.0\n##FIRSTX=200.84\n##LASTX=351.36\n##FIRSTY=3.856\n##MAXX=351.36\n##MINX=200.84\n##MAXY=4.012\n##MINY=2.278\n##NPOINTS=99\n##$REF AUTHOR=Tomazik, P.; Skrowaczewska, Z.\n##$REF JOURNAL=Roczniki Chem.\n##$REF VOLUME=42\n##$REF PAGE=0795\n##$REF DATE=1968\n##XYPOINTS=(XY..XY)\n200.84,3.856\n202.72,3.959\n203.35,3.967\n205.28,3.994\n205.93,4.002\n206.58,4.007\n207.90,4.009\n208.57,4.012\n209.24,4.009\n209.92,4.009\n210.60,4.004\n211.97,3.987\n212.67,3.972\n214.07,3.931\n214.77,3.901\n215.49,3.861\n216.20,3.833\n216.92,3.798\n217.65,3.748\n218.38,3.735\n219.12,3.680\n219.86,3.652\n220.60,3.645\n222.11,3.614\n223.64,3.604\n225.19,3.597\n226.76,3.597\n227.55,3.604\n228.35,3.619\n229.97,3.637\n231.61,3.665\n235.81,3.733\n237.53,3.763\n240.16,3.791\n241.05,3.803\n242.86,3.818\n243.77,3.823\n248.42,3.856\n250.34,3.861\n251.30,3.866\n253.26,3.869\n254.25,3.869\n255.25,3.869\n257.27,3.858\n259.32,3.848\n261.41,3.836\n262.47,3.823\n264.60,3.818\n266.77,3.821\n275.83,3.871\n278.19,3.876\n280.59,3.874\n283.03,3.861\n284.27,3.846\n285.52,3.821\n286.78,3.783\n288.05,3.768\n289.33,3.705\n290.63,3.630\n291.93,3.572\n293.25,3.514\n294.58,3.463\n295.92,3.408\n297.27,3.330\n298.64,3.270\n300.02,3.237\n301.41,3.162\n302.81,3.104\n304.23,3.046\n305.66,2.983\n307.10,2.923\n308.56,2.865\n310.03,2.835\n311.52,2.809\n313.02,2.764\n314.53,2.739\n316.06,2.731\n317.60,2.706\n319.16,2.679\n320.74,2.653\n322.33,2.618\n323.93,2.590\n325.56,2.570\n327.20,2.550\n328.85,2.543\n330.52,2.520\n331.08,2.512\n331.65,2.507\n332.21,2.502\n332.78,2.497\n333.35,2.492\n333.92,2.487\n340.92,2.412\n342.12,2.389\n344.54,2.369\n346.37,2.346\n348.23,2.324\n350.10,2.301\n351.36,2.278\n##END=\n'