b'##TITLE=3,3,4,4,5,5-hexafluoro-3,4,5,6-tetrahydro-6-imino-2-pyridinamine\n##JCAMP-DX=4.24\n##DATA TYPE=UV/VIS SPECTRUM\n##ORIGIN=INSTITUTE OF ENERGY PROBLEMS OF CHEMICAL PHYSICS, RAS\n##OWNER=INEP CP RAS, NIST OSRD\nCollection (C) 2007 copyright by the U.S. Secretary of Commerce\non behalf of the United States of America. All rights reserved.\n##CAS REGISTRY NO=4556-39-2\n##MOLFORM=C5H3F6N3\n##MP=159 dec.\n##SOURCE REFERENCE=RAS UV No. 22465\n##$NIST SQUIB=1977DOL/1387\n##$NIST SOURCE=TYUGLMTE\n##SPECTROMETER/DATA SYSTEM=SF-8\n##XUNITS=Wavelength (nm)\n##YUNITS=Logarithm epsilon\n##XFACTOR=1.0\n##YFACTOR=1.0\n##FIRSTX=202.028\n##LASTX=298.082\n##FIRSTY=2.572\n##MAXX=298.082\n##MINX=202.028\n##MAXY=4.197\n##MINY=2.508\n##NPOINTS=97\n##$REF AUTHOR=Dolgopolskii, I.M.; et al.\n##$REF JOURNAL=Zhur. Organ. Khim.\n##$REF VOLUME=13\n##$REF PAGE=1387\n##$REF DATE=1977\n##XYPOINTS=(XY..XY)\n202.028,2.572\n203.028,2.539\n204.028,2.517\n205.028,2.508\n206.028,2.515\n207.028,2.539\n208.028,2.579\n209.028,2.634\n210.028,2.699\n211.028,2.772\n212.028,2.849\n213.028,2.929\n214.028,3.009\n215.028,3.089\n216.028,3.167\n217.028,3.244\n218.028,3.318\n219.028,3.391\n220.028,3.461\n221.028,3.528\n222.028,3.594\n223.028,3.658\n224.180,3.722\n225.180,3.791\n226.180,3.848\n227.180,3.895\n228.180,3.935\n229.180,3.970\n230.180,4.000\n231.180,4.027\n232.180,4.050\n233.180,4.071\n234.180,4.089\n235.180,4.105\n236.180,4.120\n237.180,4.132\n238.180,4.144\n239.180,4.154\n240.180,4.162\n241.180,4.170\n242.180,4.176\n243.180,4.182\n244.180,4.186\n245.180,4.190\n246.180,4.193\n247.180,4.195\n248.180,4.196\n249.180,4.197\n250.180,4.197\n251.180,4.196\n252.180,4.195\n253.180,4.194\n254.180,4.191\n255.180,4.189\n256.180,4.185\n257.180,4.182\n258.180,4.177\n259.180,4.173\n260.047,4.168\n261.032,4.163\n262.032,4.157\n263.032,4.150\n264.032,4.143\n265.032,4.134\n266.032,4.122\n267.032,4.107\n268.032,4.089\n269.032,4.067\n270.032,4.041\n271.032,4.011\n272.032,3.977\n273.032,3.938\n274.032,3.893\n275.032,3.844\n276.032,3.790\n277.032,3.731\n278.082,3.666\n279.082,3.595\n280.082,3.530\n281.082,3.470\n282.082,3.415\n283.082,3.365\n284.082,3.319\n285.082,3.275\n286.082,3.234\n287.082,3.192\n288.082,3.151\n289.082,3.108\n290.082,3.065\n291.082,3.022\n292.082,2.978\n293.082,2.936\n294.082,2.896\n295.082,2.860\n296.082,2.827\n297.082,2.796\n298.082,2.763\n##END=\n'