b'##TITLE=4-Pyridinethiol\n##JCAMP-DX=4.24\n##DATA TYPE=UV/VIS SPECTRUM\n##ORIGIN=INSTITUTE OF ENERGY PROBLEMS OF CHEMICAL PHYSICS, RAS\n##OWNER=INEP CP RAS, NIST OSRD\nCollection (C) 2007 copyright by the U.S. Secretary of Commerce\non behalf of the United States of America. All rights reserved.\n##CAS REGISTRY NO=4556-23-4\n##MOLFORM=C5H5NS\n##MP=177 dec\n##SOURCE REFERENCE=RAS UV No. 12944\n##$NIST SQUIB=1959ALB/BAR2384\n##$NIST SOURCE=TYUGLMTE\n##SPECTROMETER/DATA SYSTEM=n.i.g.\n##XUNITS=Wavelength (nm)\n##YUNITS=Logarithm epsilon\n##XFACTOR=1.0\n##YFACTOR=1.0\n##FIRSTX=220.03\n##LASTX=381.13\n##FIRSTY=3.99\n##MAXX=381.13\n##MINX=220.03\n##MAXY=4.374\n##MINY=2.293\n##NPOINTS=100\n##$REF AUTHOR=Albert, A.; Barlin, G.B.\n##$REF JOURNAL=J. Chem. Soc.\n##$REF PAGE=2384\n##$REF DATE=1959\n##XYPOINTS=(XY..XY)\n220.03,3.990\n222.06,4.025\n224.38,4.060\n226.71,4.088\n229.32,4.088\n231.64,4.060\n233.38,4.018\n234.83,3.962\n235.99,3.906\n236.87,3.851\n237.16,3.788\n237.45,3.725\n238.03,3.662\n238.61,3.599\n239.19,3.536\n239.48,3.473\n240.06,3.411\n240.93,3.348\n241.80,3.285\n243.25,3.229\n245.28,3.187\n247.61,3.159\n250.22,3.145\n252.83,3.145\n255.44,3.152\n257.76,3.180\n260.38,3.201\n262.70,3.222\n265.02,3.243\n267.63,3.250\n269.96,3.271\n272.57,3.285\n274.89,3.306\n277.50,3.320\n279.54,3.355\n281.57,3.390\n283.31,3.432\n285.05,3.473\n286.79,3.515\n288.53,3.564\n289.99,3.613\n291.44,3.669\n292.89,3.725\n294.34,3.781\n295.79,3.830\n297.24,3.878\n298.40,3.934\n299.85,3.983\n301.31,4.039\n302.76,4.095\n304.50,4.144\n306.24,4.193\n308.27,4.235\n310.30,4.270\n312.34,4.304\n314.66,4.339\n316.98,4.367\n319.59,4.374\n322.21,4.367\n324.53,4.339\n326.56,4.297\n328.59,4.256\n330.33,4.214\n332.08,4.165\n333.82,4.116\n335.27,4.060\n336.43,4.004\n337.88,3.948\n339.04,3.892\n339.91,3.837\n341.36,3.788\n342.24,3.725\n343.11,3.669\n344.27,3.613\n345.43,3.557\n346.30,3.501\n347.17,3.446\n348.04,3.390\n349.20,3.334\n350.07,3.278\n351.23,3.222\n352.39,3.166\n353.56,3.110\n354.72,3.054\n356.17,3.006\n357.33,2.950\n358.78,2.894\n360.23,2.845\n361.68,2.789\n363.13,2.740\n364.59,2.684\n366.33,2.642\n368.07,2.594\n369.81,2.545\n371.84,2.503\n373.88,2.468\n375.91,2.426\n377.65,2.377\n379.39,2.335\n381.13,2.293\n##END=\n'