b'##TITLE=1,3-Butadiyne\n##JCAMP-DX=4.24\n##DATA TYPE=UV/VIS SPECTRUM\n##ORIGIN=INSTITUTE OF ENERGY PROBLEMS OF CHEMICAL PHYSICS, RAS\n##OWNER=INEP CP RAS, NIST OSRD\nCollection (C) 2007 copyright by the U.S. Secretary of Commerce\non behalf of the United States of America. All rights reserved.\n##CAS REGISTRY NO=460-12-8\n##MOLFORM=C4H2\n##MP=10\n##SOURCE REFERENCE=RAS UV No. 20172\n##$NIST SQUIB=1969FIH/172\n##$NIST SOURCE=TYUGLMTE\n##SPECTROMETER/DATA SYSTEM=SF-4\n##XUNITS=Wavelength (nm)\n##YUNITS=Logarithm epsilon\n##XFACTOR=1.0\n##YFACTOR=1.0\n##FIRSTX=216.75\n##LASTX=258.59\n##FIRSTY=2.504\n##MAXX=258.59\n##MINX=216.75\n##MAXY=2.72\n##MINY=1.395\n##NPOINTS=150\n##$REF AUTHOR=Fihtengolts, V.S.; et al.\n##$REF JOURNAL=Atlas of UV Absorption Spectra of Substances Used in Synthetic Rubber Manufacture\n##$REF PAGE=172\n##$REF DATE=1969\n##XYPOINTS=(XY..XY)\n216.75,2.504\n217.05,2.511\n217.35,2.519\n217.67,2.527\n217.94,2.534\n218.24,2.540\n218.54,2.548\n218.80,2.556\n219.05,2.562\n219.35,2.571\n219.65,2.578\n219.87,2.584\n220.16,2.593\n220.37,2.601\n220.63,2.609\n220.84,2.618\n221.09,2.627\n221.27,2.634\n221.48,2.642\n221.74,2.648\n222.00,2.655\n222.25,2.661\n222.55,2.666\n222.89,2.670\n223.26,2.673\n223.62,2.675\n224.00,2.674\n224.34,2.669\n224.60,2.663\n224.90,2.657\n225.15,2.650\n225.36,2.643\n225.62,2.635\n225.83,2.627\n226.09,2.620\n226.43,2.615\n226.73,2.609\n227.07,2.605\n227.45,2.601\n227.84,2.600\n228.18,2.604\n228.52,2.608\n228.86,2.613\n229.20,2.618\n229.55,2.623\n229.84,2.628\n230.14,2.634\n230.40,2.641\n230.65,2.648\n230.91,2.655\n231.17,2.661\n231.38,2.668\n231.64,2.674\n231.85,2.680\n232.06,2.687\n232.32,2.692\n232.57,2.699\n232.83,2.705\n233.17,2.710\n233.47,2.714\n233.81,2.718\n234.15,2.720\n234.54,2.718\n234.88,2.715\n235.18,2.711\n235.43,2.705\n235.69,2.700\n235.90,2.693\n236.16,2.687\n236.37,2.679\n236.58,2.672\n236.77,2.665\n236.97,2.657\n237.18,2.649\n237.39,2.642\n237.61,2.633\n237.77,2.624\n237.95,2.616\n238.12,2.607\n238.29,2.598\n238.46,2.590\n238.63,2.580\n238.81,2.571\n239.00,2.562\n239.21,2.552\n239.42,2.542\n239.61,2.533\n239.82,2.523\n240.04,2.513\n240.25,2.504\n240.46,2.493\n240.68,2.483\n240.89,2.473\n241.15,2.462\n241.40,2.451\n241.66,2.439\n241.92,2.431\n242.26,2.420\n242.59,2.411\n242.94,2.405\n243.28,2.399\n243.66,2.394\n244.05,2.390\n244.41,2.387\n244.82,2.388\n245.16,2.394\n245.50,2.399\n245.88,2.401\n246.27,2.399\n246.61,2.390\n246.91,2.381\n247.12,2.367\n247.37,2.354\n247.57,2.340\n247.79,2.326\n248.06,2.309\n248.31,2.293\n248.57,2.279\n248.82,2.262\n249.08,2.244\n249.34,2.226\n249.59,2.209\n249.85,2.192\n250.13,2.173\n250.39,2.153\n250.66,2.136\n250.91,2.116\n251.17,2.094\n251.43,2.072\n251.73,2.052\n252.02,2.027\n252.36,2.005\n252.71,1.982\n252.99,1.956\n253.35,1.927\n253.69,1.899\n254.03,1.869\n254.37,1.844\n254.67,1.820\n255.05,1.788\n255.39,1.758\n255.73,1.725\n256.08,1.698\n256.41,1.665\n256.80,1.619\n257.14,1.573\n257.38,1.542\n257.87,1.493\n258.14,1.455\n258.59,1.395\n##END=\n'