b'##TITLE=2,4-Imidazolidinedione\n##JCAMP-DX=4.24\n##DATA TYPE=UV/VIS SPECTRUM\n##ORIGIN=INSTITUTE OF ENERGY PROBLEMS OF CHEMICAL PHYSICS, RAS\n##OWNER=INEP CP RAS, NIST OSRD\nCollection (C) 2007 copyright by the U.S. Secretary of Commerce\non behalf of the United States of America. All rights reserved.\n##CAS REGISTRY NO=461-72-3\n##MOLFORM=C3H4N2O2\n##MP=220-222\n##SOURCE REFERENCE=RAS UV No. 19959\n##$NIST SQUIB=1966JOHb11/5\n##$NIST SOURCE=TYUGLMTE\n##SPECTROMETER/DATA SYSTEM=Unicam SP 500\n##XUNITS=Wavelength (nm)\n##YUNITS=Logarithm epsilon\n##XFACTOR=1.0\n##YFACTOR=1.0\n##FIRSTX=191.81\n##LASTX=254.44\n##FIRSTY=3.775\n##MAXX=254.44\n##MINX=191.81\n##MAXY=3.775\n##MINY=1.1\n##NPOINTS=113\n##$REF AUTHOR=Johnson, E.A.\n##$REF JOURNAL=UV atlas of organic compounds\n##$REF VOLUME=1\n##$REF PAGE=B11/5\n##$REF DATE=1966\n##XYPOINTS=(XY..XY)\n191.81,3.775\n191.89,3.772\n191.97,3.768\n192.05,3.765\n192.13,3.762\n192.21,3.760\n192.29,3.757\n192.37,3.754\n192.44,3.751\n192.52,3.748\n192.60,3.746\n192.68,3.743\n192.76,3.740\n192.84,3.736\n192.92,3.733\n193.24,3.728\n193.72,3.712\n194.20,3.699\n194.69,3.690\n195.18,3.683\n195.67,3.680\n196.16,3.675\n196.65,3.672\n197.15,3.664\n197.65,3.662\n198.15,3.662\n198.66,3.664\n199.17,3.666\n199.68,3.666\n200.19,3.667\n200.71,3.669\n201.22,3.669\n201.74,3.669\n202.27,3.667\n202.79,3.667\n203.32,3.667\n203.86,3.666\n204.39,3.664\n204.93,3.659\n205.47,3.658\n206.01,3.653\n206.56,3.650\n207.11,3.641\n207.66,3.635\n208.21,3.629\n208.77,3.621\n209.33,3.611\n209.90,3.601\n210.46,3.590\n211.03,3.577\n211.60,3.561\n212.18,3.547\n212.76,3.532\n213.34,3.516\n213.93,3.500\n214.52,3.481\n215.11,3.463\n215.70,3.447\n216.30,3.441\n216.91,3.426\n217.51,3.405\n218.12,3.383\n218.73,3.363\n219.35,3.342\n219.97,3.318\n220.59,3.296\n221.22,3.272\n221.85,3.251\n222.48,3.225\n223.12,3.199\n223.76,3.177\n224.40,3.148\n225.05,3.122\n225.70,3.096\n226.36,3.071\n227.02,3.043\n227.68,3.014\n228.35,2.984\n229.02,2.953\n229.69,2.923\n230.37,2.892\n231.05,2.860\n231.74,2.828\n232.43,2.796\n233.13,2.760\n233.83,2.728\n234.53,2.690\n235.24,2.651\n235.95,2.611\n236.67,2.568\n237.39,2.526\n238.11,2.474\n238.84,2.426\n239.58,2.373\n240.32,2.320\n241.06,2.270\n241.81,2.211\n242.56,2.156\n243.32,2.103\n244.08,2.040\n244.85,1.979\n245.62,1.920\n246.40,1.850\n247.18,1.780\n247.96,1.711\n248.76,1.640\n249.55,1.576\n250.35,1.502\n251.16,1.415\n251.97,1.341\n252.79,1.273\n253.61,1.186\n254.44,1.100\n##END=\n'