b'##TITLE=3-Pyridinamine\n##JCAMP-DX=4.24\n##DATA TYPE=UV/VIS SPECTRUM\n##ORIGIN=INSTITUTE OF ENERGY PROBLEMS OF CHEMICAL PHYSICS, RAS\n##OWNER=INEP CP RAS, NIST OSRD\nCollection (C) 2007 copyright by the U.S. Secretary of Commerce\non behalf of the United States of America. All rights reserved.\n##CAS REGISTRY NO=462-08-8\n##MOLFORM=C5H6N2\n##MP=64.5\n##BP=252\n##SOURCE REFERENCE=RAS UV No. 12952\n##$NIST SQUIB=1959GRA480\n##$NIST SOURCE=TYUGLMTE\n##SPECTROMETER/DATA SYSTEM=n.i.g.\n##XUNITS=Wavelength (nm)\n##YUNITS=Logarithm epsilon\n##XFACTOR=1.0\n##YFACTOR=1.0\n##FIRSTX=218.67\n##LASTX=341.22\n##FIRSTY=3.075\n##MAXX=341.22\n##MINX=218.67\n##MAXY=3.645\n##MINY=1.624\n##NPOINTS=108\n##$REF AUTHOR=Grammaticakis, P.\n##$REF JOURNAL=Bull. soc. chim. France\n##$REF VOLUME=Series 5\n##$REF PAGE=480\n##$REF DATE=1959\n##XYPOINTS=(XY..XY)\n218.67,3.075\n219.36,3.094\n219.77,3.105\n219.91,3.109\n220.05,3.113\n220.33,3.120\n220.47,3.124\n220.75,3.131\n221.59,3.154\n223.00,3.198\n224.51,3.247\n225.73,3.281\n226.78,3.316\n228.84,3.377\n229.59,3.403\n230.35,3.422\n231.48,3.455\n233.34,3.509\n234.97,3.555\n236.59,3.600\n237.39,3.615\n238.20,3.634\n239.01,3.645\n239.83,3.645\n240.66,3.641\n241.49,3.641\n242.33,3.630\n243.29,3.619\n244.02,3.608\n245.20,3.583\n246.49,3.548\n247.48,3.515\n248.35,3.489\n249.24,3.459\n250.16,3.427\n251.07,3.385\n252.12,3.332\n252.85,3.284\n253.76,3.228\n254.69,3.139\n255.22,3.078\n255.62,3.023\n256.22,2.945\n256.65,2.898\n257.13,2.850\n257.70,2.806\n258.46,2.759\n259.42,2.711\n260.38,2.655\n261.14,2.602\n261.76,2.561\n262.34,2.517\n263.32,2.469\n264.32,2.413\n265.32,2.391\n266.33,2.398\n268.38,2.473\n269.41,2.521\n270.46,2.551\n272.57,2.621\n273.60,2.661\n274.71,2.700\n276.15,2.740\n277.70,2.776\n279.10,2.811\n280.94,2.851\n282.48,2.882\n284.37,2.922\n285.95,2.953\n287.12,2.982\n288.31,3.005\n289.50,3.023\n290.70,3.046\n291.96,3.066\n294.20,3.092\n296.88,3.113\n298.79,3.125\n300.71,3.131\n302.01,3.139\n303.95,3.139\n305.97,3.131\n307.32,3.124\n308.68,3.113\n310.05,3.094\n311.43,3.079\n312.90,3.053\n314.23,3.020\n315.65,2.990\n317.08,2.964\n318.52,2.919\n320.00,2.871\n321.45,2.819\n322.94,2.770\n324.08,2.727\n325.95,2.621\n326.71,2.564\n327.48,2.499\n329.02,2.398\n330.57,2.294\n332.14,2.186\n333.73,2.097\n335.33,1.955\n336.95,1.847\n338.58,1.724\n340.23,1.635\n340.56,1.631\n340.89,1.628\n341.22,1.624\n##END=\n'