b'##TITLE=Carbonothioic dichloride\n##JCAMP-DX=4.24\n##DATA TYPE=UV/VIS SPECTRUM\n##ORIGIN=INSTITUTE OF ENERGY PROBLEMS OF CHEMICAL PHYSICS, RAS\n##OWNER=INEP CP RAS, NIST OSRD\nCollection (C) 2007 copyright by the U.S. Secretary of Commerce\non behalf of the United States of America. All rights reserved.\n##CAS REGISTRY NO=463-71-8\n##MOLFORM=CCl2S\n##SOURCE REFERENCE=RAS UV No. 15935\n##$NIST SQUIB=1973FAR/KIN419\n##$NIST SOURCE=TYUGLMTE\n##SPECTROMETER/DATA SYSTEM=Cary 14\n##XUNITS=Wavelength (nm)\n##YUNITS=Logarithm epsilon\n##XFACTOR=1.0\n##YFACTOR=1.0\n##FIRSTX=231.57\n##LASTX=281.14\n##FIRSTY=2.934\n##MAXX=281.14\n##MINX=231.57\n##MAXY=3.489\n##MINY=2.133\n##NPOINTS=392\n##$REF AUTHOR=Farnsworth, E.R.; King, G.W.\n##$REF JOURNAL=J. Mol. Spectr.\n##$REF VOLUME=46\n##$REF PAGE=419\n##$REF DATE=1973\n##XYPOINTS=(XY..XY)\n231.57,2.934\n231.62,2.934\n231.67,2.936\n231.72,2.938\n231.77,2.938\n231.82,2.940\n231.87,2.942\n231.92,2.942\n232.12,2.951\n232.22,2.953\n232.32,2.959\n232.42,2.961\n232.52,2.965\n232.82,2.978\n232.92,2.980\n233.02,2.984\n233.13,2.988\n233.23,2.990\n233.63,3.005\n233.73,3.006\n233.83,3.012\n233.93,3.015\n234.04,3.021\n234.34,3.033\n234.44,3.034\n234.54,3.039\n234.65,3.041\n234.75,3.044\n235.16,3.061\n235.26,3.062\n235.36,3.064\n235.47,3.070\n235.57,3.071\n235.98,3.091\n236.09,3.091\n236.19,3.094\n236.29,3.096\n236.40,3.100\n236.50,3.103\n236.81,3.117\n236.92,3.121\n237.02,3.121\n237.12,3.127\n237.65,3.143\n237.75,3.147\n237.86,3.149\n237.96,3.154\n238.28,3.166\n238.38,3.168\n238.49,3.172\n238.59,3.174\n238.80,3.185\n238.91,3.183\n239.02,3.185\n239.12,3.189\n239.23,3.192\n239.33,3.195\n239.44,3.199\n239.55,3.202\n239.65,3.203\n239.76,3.204\n239.87,3.208\n239.97,3.215\n240.08,3.215\n240.19,3.219\n240.29,3.220\n240.40,3.221\n240.51,3.227\n240.62,3.232\n240.72,3.240\n240.83,3.241\n240.94,3.242\n241.05,3.243\n241.15,3.246\n241.26,3.259\n241.37,3.263\n241.48,3.263\n241.59,3.258\n241.69,3.259\n241.80,3.270\n241.91,3.277\n242.02,3.282\n242.13,3.283\n242.24,3.284\n242.35,3.284\n242.45,3.283\n242.56,3.287\n242.67,3.300\n242.78,3.302\n242.89,3.305\n243.00,3.306\n243.11,3.307\n243.22,3.311\n243.33,3.318\n243.44,3.321\n243.55,3.329\n243.66,3.329\n243.77,3.329\n243.88,3.332\n243.99,3.338\n244.10,3.346\n244.21,3.350\n244.32,3.346\n244.43,3.345\n244.54,3.346\n244.65,3.347\n244.77,3.362\n244.88,3.369\n244.99,3.369\n245.10,3.366\n245.21,3.366\n245.32,3.372\n245.43,3.381\n245.55,3.381\n245.66,3.385\n245.77,3.390\n245.88,3.390\n245.99,3.393\n246.11,3.393\n246.22,3.397\n246.33,3.404\n246.44,3.407\n246.56,3.404\n246.67,3.403\n246.78,3.410\n246.90,3.414\n247.01,3.419\n247.12,3.419\n247.24,3.418\n247.35,3.420\n247.46,3.421\n247.58,3.421\n247.69,3.425\n247.80,3.434\n247.92,3.438\n248.03,3.442\n248.15,3.440\n248.26,3.441\n248.37,3.443\n248.49,3.444\n248.60,3.445\n248.72,3.454\n248.83,3.452\n248.95,3.452\n249.06,3.453\n249.18,3.453\n249.29,3.454\n249.41,3.457\n249.52,3.463\n249.64,3.467\n249.75,3.461\n249.87,3.458\n249.99,3.463\n250.10,3.469\n250.22,3.467\n250.33,3.466\n250.45,3.467\n250.57,3.467\n250.68,3.466\n250.80,3.466\n250.92,3.469\n251.03,3.474\n251.15,3.477\n251.27,3.478\n251.38,3.478\n251.50,3.478\n251.62,3.475\n251.74,3.474\n251.85,3.471\n251.97,3.472\n252.09,3.480\n252.21,3.480\n252.33,3.477\n252.44,3.475\n252.56,3.477\n252.68,3.477\n252.80,3.489\n252.92,3.478\n253.04,3.478\n253.16,3.484\n253.27,3.472\n253.39,3.469\n253.51,3.469\n253.63,3.473\n253.75,3.479\n253.87,3.483\n253.99,3.483\n254.11,3.477\n254.23,3.477\n254.35,3.477\n254.47,3.478\n254.59,3.483\n254.71,3.477\n254.83,3.472\n254.95,3.468\n255.07,3.465\n255.19,3.465\n255.31,3.465\n255.43,3.467\n255.55,3.467\n255.68,3.469\n255.80,3.468\n255.92,3.462\n256.04,3.463\n256.16,3.463\n256.28,3.460\n256.41,3.452\n256.53,3.447\n256.65,3.447\n256.77,3.447\n256.89,3.446\n257.02,3.445\n257.14,3.439\n257.26,3.442\n257.38,3.445\n257.51,3.448\n257.63,3.438\n257.75,3.435\n257.88,3.428\n258.00,3.425\n258.12,3.423\n258.25,3.407\n258.37,3.397\n258.50,3.395\n258.62,3.410\n258.74,3.412\n258.87,3.409\n258.99,3.409\n259.12,3.404\n259.24,3.402\n259.37,3.399\n259.49,3.395\n259.62,3.388\n259.74,3.380\n259.87,3.361\n259.99,3.353\n260.12,3.348\n260.24,3.353\n260.37,3.360\n260.49,3.368\n260.62,3.361\n260.75,3.351\n260.87,3.348\n261.00,3.340\n261.12,3.338\n261.25,3.330\n261.38,3.324\n261.50,3.306\n261.63,3.303\n261.76,3.302\n261.89,3.298\n262.01,3.291\n262.14,3.289\n262.27,3.304\n262.39,3.307\n262.52,3.298\n262.65,3.277\n262.78,3.268\n262.91,3.237\n263.03,3.224\n263.16,3.220\n263.29,3.219\n263.42,3.225\n263.55,3.233\n263.68,3.202\n263.81,3.199\n263.94,3.200\n264.07,3.172\n264.19,3.156\n264.32,3.144\n264.45,3.138\n264.58,3.135\n264.71,3.114\n264.84,3.113\n264.97,3.117\n265.10,3.124\n265.23,3.124\n265.37,3.123\n265.50,3.104\n265.63,3.079\n265.76,3.068\n265.89,3.054\n266.02,3.033\n266.15,3.038\n266.28,3.046\n266.41,3.054\n266.55,3.003\n266.68,2.955\n266.81,2.936\n266.94,2.963\n267.07,3.014\n267.21,3.017\n267.34,2.990\n267.47,2.963\n267.60,2.959\n267.74,2.945\n267.87,2.925\n268.00,2.923\n268.14,2.932\n268.27,2.930\n268.40,2.919\n268.54,2.914\n268.67,2.894\n268.80,2.894\n268.94,2.875\n269.07,2.863\n269.21,2.839\n269.34,2.823\n269.48,2.826\n269.61,2.850\n269.75,2.837\n269.88,2.758\n270.02,2.752\n270.15,2.755\n270.29,2.774\n270.42,2.798\n270.56,2.809\n270.69,2.765\n270.83,2.700\n270.97,2.682\n271.10,2.686\n271.24,2.704\n271.38,2.718\n271.51,2.722\n271.65,2.693\n271.79,2.658\n271.92,2.634\n272.06,2.607\n272.20,2.603\n272.33,2.638\n272.47,2.642\n272.61,2.646\n272.75,2.638\n272.89,2.594\n273.02,2.550\n273.16,2.544\n273.30,2.544\n273.44,2.550\n273.58,2.544\n273.72,2.544\n273.86,2.555\n274.00,2.570\n274.13,2.517\n274.27,2.495\n274.41,2.458\n274.55,2.438\n274.69,2.432\n274.83,2.432\n274.97,2.464\n275.11,2.445\n275.25,2.418\n275.39,2.397\n275.54,2.389\n275.68,2.374\n275.82,2.350\n275.96,2.334\n276.10,2.325\n276.24,2.342\n276.38,2.350\n276.52,2.382\n276.67,2.382\n276.81,2.316\n276.95,2.298\n277.09,2.270\n277.24,2.270\n277.38,2.260\n277.52,2.280\n277.66,2.298\n277.81,2.298\n277.95,2.298\n278.09,2.289\n278.24,2.260\n278.38,2.229\n278.52,2.218\n278.67,2.207\n278.81,2.207\n278.96,2.218\n279.10,2.207\n279.25,2.207\n279.39,2.218\n279.54,2.207\n279.68,2.195\n279.83,2.146\n279.97,2.133\n280.12,2.133\n280.26,2.133\n280.41,2.183\n280.55,2.239\n280.70,2.207\n280.85,2.183\n280.99,2.146\n281.14,2.133\n##END=\n'