b'##TITLE=Propene, 2-nitro-\n##JCAMP-DX=4.24\n##DATA TYPE=UV/VIS SPECTRUM\n##ORIGIN=INSTITUTE OF ENERGY PROBLEMS OF CHEMICAL PHYSICS, RAS\n##OWNER=INEP CP RAS, NIST OSRD\nCollection (C) 2007 copyright by the U.S. Secretary of Commerce\non behalf of the United States of America. All rights reserved.\n##CAS REGISTRY NO=4749-28-4\n##MOLFORM=C3H5NO2\n##BP=57/ 100 mm\n##SOURCE REFERENCE=RAS UV No. 20176\n##$NIST SQUIB=1969FIH/179\n##$NIST SOURCE=TYUGLMTE\n##SPECTROMETER/DATA SYSTEM=SF-4\n##XUNITS=Wavelength (nm)\n##YUNITS=Logarithm epsilon\n##XFACTOR=1.0\n##YFACTOR=1.0\n##FIRSTX=210.58\n##LASTX=292.9\n##FIRSTY=3.744\n##MAXX=292.9\n##MINX=210.58\n##MAXY=3.791\n##MINY=2.007\n##NPOINTS=111\n##$REF AUTHOR=Fihtengolts, V.S.; et al.\n##$REF JOURNAL=Atlas of UV Absorption Spectra of Substances Used Synthetic Rubber Manufacture\n##$REF PAGE=179\n##$REF DATE=1969\n##XYPOINTS=(XY..XY)\n210.58,3.744\n211.30,3.750\n212.03,3.755\n212.75,3.761\n213.62,3.765\n214.49,3.770\n215.36,3.774\n216.23,3.778\n217.25,3.781\n218.26,3.785\n219.42,3.788\n220.72,3.789\n222.03,3.791\n223.33,3.791\n224.64,3.789\n225.94,3.787\n227.10,3.785\n228.26,3.782\n229.28,3.778\n230.14,3.774\n231.16,3.770\n232.17,3.766\n232.90,3.761\n233.77,3.757\n234.64,3.752\n235.36,3.747\n236.09,3.742\n236.81,3.737\n237.54,3.731\n238.26,3.725\n238.84,3.719\n239.57,3.714\n240.29,3.708\n240.72,3.701\n241.45,3.696\n241.88,3.689\n242.61,3.684\n243.19,3.677\n243.77,3.670\n244.35,3.663\n244.78,3.656\n245.36,3.649\n245.94,3.642\n246.52,3.635\n247.10,3.627\n247.68,3.619\n248.12,3.612\n248.84,3.604\n249.42,3.596\n249.86,3.588\n250.43,3.579\n251.01,3.571\n251.45,3.562\n252.03,3.553\n252.46,3.544\n252.90,3.535\n253.33,3.524\n253.77,3.515\n254.35,3.505\n254.78,3.495\n255.22,3.483\n255.65,3.472\n256.23,3.461\n256.67,3.449\n257.10,3.437\n257.54,3.425\n257.97,3.413\n258.41,3.400\n258.84,3.388\n259.28,3.374\n259.71,3.361\n260.15,3.346\n260.58,3.330\n260.89,3.316\n261.30,3.297\n261.74,3.280\n262.17,3.263\n262.61,3.245\n263.19,3.227\n263.62,3.207\n264.06,3.187\n264.64,3.166\n265.22,3.143\n265.80,3.120\n266.38,3.095\n267.10,3.068\n267.68,3.040\n268.41,3.014\n269.13,2.986\n269.71,2.951\n270.43,2.919\n271.16,2.884\n272.03,2.845\n272.90,2.810\n273.77,2.771\n274.64,2.728\n275.65,2.681\n276.81,2.637\n277.97,2.598\n279.13,2.556\n280.29,2.509\n281.50,2.460\n282.75,2.412\n283.91,2.363\n285.30,2.298\n286.42,2.249\n287.68,2.196\n288.99,2.142\n290.14,2.098\n291.59,2.045\n292.90,2.007\n##END=\n'