b'##TITLE=1,3-Dithiolane\n##JCAMP-DX=4.24\n##DATA TYPE=UV/VIS SPECTRUM\n##ORIGIN=INSTITUTE OF ENERGY PROBLEMS OF CHEMICAL PHYSICS, RAS\n##OWNER=INEP CP RAS, NIST OSRD\nCollection (C) 2007 copyright by the U.S. Secretary of Commerce\non behalf of the United States of America. All rights reserved.\n##CAS REGISTRY NO=4829-04-3\n##MOLFORM=C3H6S2\n##MP=-50\n##BP=175\n##SOURCE REFERENCE=RAS UV No. 13184\n##$NIST SQUIB=1962BER/SCH1159\n##$NIST SOURCE=TYUGLMTE\n##SPECTROMETER/DATA SYSTEM=n.i.g.\n##XUNITS=Wavelength (nm)\n##YUNITS=Logarithm epsilon\n##XFACTOR=1.0\n##YFACTOR=1.0\n##FIRSTX=202.39\n##LASTX=267.73\n##FIRSTY=3.129\n##MAXX=267.73\n##MINX=202.39\n##MAXY=3.138\n##MINY=0.409\n##NPOINTS=84\n##$REF AUTHOR=Bergson, G.; Schotte, L.\n##$REF JOURNAL=Acta Chem. Scand.\n##$REF VOLUME=16\n##$REF PAGE=1159\n##$REF DATE=1962\n##XYPOINTS=(XY..XY)\n202.39,3.129\n202.79,3.134\n203.19,3.134\n203.59,3.134\n203.98,3.134\n204.38,3.134\n204.78,3.138\n205.18,3.138\n205.58,3.138\n205.98,3.138\n208.76,3.116\n209.56,3.111\n210.36,3.089\n211.16,3.053\n211.94,3.009\n212.75,2.968\n213.39,2.926\n214.19,2.866\n215.14,2.779\n215.94,2.716\n216.73,2.653\n217.50,2.596\n218.33,2.555\n219.12,2.532\n219.92,2.514\n220.72,2.505\n221.51,2.496\n222.31,2.492\n223.38,2.489\n224.70,2.487\n225.50,2.492\n226.29,2.492\n227.12,2.491\n227.89,2.492\n228.69,2.496\n229.48,2.501\n230.31,2.509\n231.07,2.520\n231.90,2.532\n232.77,2.546\n233.47,2.555\n234.26,2.568\n234.96,2.578\n235.69,2.583\n236.52,2.591\n237.28,2.596\n238.06,2.599\n239.04,2.600\n239.84,2.600\n240.64,2.595\n241.43,2.591\n242.23,2.586\n243.03,2.582\n243.82,2.577\n244.61,2.568\n245.42,2.555\n246.29,2.526\n247.01,2.496\n247.81,2.451\n248.61,2.407\n249.40,2.348\n250.20,2.299\n250.85,2.246\n251.61,2.188\n252.28,2.130\n252.94,2.065\n253.74,1.989\n254.64,1.891\n255.57,1.779\n256.53,1.667\n257.37,1.580\n258.06,1.490\n258.96,1.387\n259.69,1.305\n260.45,1.207\n261.35,1.109\n262.04,1.042\n262.95,0.938\n263.61,0.860\n264.54,0.745\n265.19,0.670\n265.94,0.590\n266.93,0.489\n267.73,0.409\n##END=\n'