b'##TITLE=2,3-Dichloropyrazine\n##JCAMP-DX=4.24\n##DATA TYPE=UV/VIS SPECTRUM\n##ORIGIN=INSTITUTE OF ENERGY PROBLEMS OF CHEMICAL PHYSICS, RAS\n##OWNER=INEP CP RAS, NIST OSRD\nCollection (C) 2007 copyright by the U.S. Secretary of Commerce\non behalf of the United States of America. All rights reserved.\n##CAS REGISTRY NO=4858-85-9\n##MOLFORM=C4H2Cl2N2\n##BP=105-107/ 50 mm\n##SOURCE REFERENCE=RAS UV No. 10401\n##$NIST SQUIB=1951HAL/HIR711\n##$NIST SOURCE=TYUGLMTE\n##SPECTROMETER/DATA SYSTEM=Beckman DU\n##XUNITS=Wavelength (nm)\n##YUNITS=Logarithm epsilon\n##XFACTOR=1.0\n##YFACTOR=1.0\n##FIRSTX=214.49\n##LASTX=324.8\n##FIRSTY=3.84\n##MAXX=324.8\n##MINX=214.49\n##MAXY=3.867\n##MINY=1.21\n##NPOINTS=561\n##$REF AUTHOR=Halverson, F.; Hirt, R.C.\n##$REF JOURNAL=J. Chem. Phys.\n##$REF VOLUME=19\n##$REF PAGE=711\n##$REF DATE=1951\n##XYPOINTS=(XY..XY)\n214.49,3.840\n214.60,3.840\n214.72,3.845\n214.84,3.845\n214.96,3.849\n215.07,3.849\n215.19,3.849\n215.31,3.849\n215.43,3.854\n215.55,3.867\n216.14,3.863\n216.26,3.854\n216.38,3.854\n216.50,3.854\n216.62,3.858\n217.10,3.854\n217.22,3.849\n217.34,3.849\n217.46,3.849\n217.58,3.854\n218.31,3.826\n218.43,3.826\n218.55,3.822\n218.67,3.817\n218.79,3.812\n218.92,3.812\n219.04,3.808\n219.16,3.803\n219.28,3.799\n219.41,3.790\n219.53,3.790\n219.65,3.785\n219.77,3.785\n219.90,3.785\n220.02,3.780\n220.14,3.780\n220.27,3.776\n220.39,3.780\n220.76,3.744\n220.89,3.735\n221.01,3.735\n221.14,3.735\n221.26,3.739\n221.39,3.739\n221.51,3.712\n221.64,3.698\n221.76,3.694\n221.89,3.694\n222.01,3.698\n222.14,3.707\n222.39,3.680\n222.52,3.666\n222.64,3.662\n222.77,3.652\n222.90,3.643\n223.02,3.630\n223.15,3.616\n223.28,3.598\n223.41,3.593\n223.53,3.588\n223.66,3.588\n223.79,3.588\n223.92,3.588\n224.04,3.543\n224.17,3.543\n224.30,3.502\n224.43,3.497\n224.56,3.497\n224.69,3.433\n224.81,3.415\n224.94,3.392\n225.07,3.378\n225.20,3.373\n225.33,3.373\n225.46,3.328\n225.59,3.328\n225.72,3.291\n225.85,3.250\n225.98,3.236\n226.11,3.213\n226.24,3.195\n226.37,3.181\n226.50,3.177\n226.63,3.177\n226.76,3.140\n226.90,3.104\n227.03,3.099\n227.16,3.099\n227.29,3.044\n227.42,3.026\n227.55,3.012\n227.69,2.985\n227.82,2.976\n227.95,2.971\n228.08,2.966\n228.22,2.925\n228.35,2.916\n228.48,2.916\n228.61,2.884\n228.75,2.880\n228.88,2.843\n229.02,2.829\n229.15,2.811\n229.28,2.797\n229.42,2.779\n229.55,2.761\n229.69,2.756\n229.82,2.752\n229.96,2.720\n230.09,2.715\n230.23,2.683\n230.36,2.678\n230.50,2.678\n230.63,2.633\n230.77,2.623\n230.90,2.614\n231.04,2.605\n231.18,2.582\n231.31,2.573\n231.45,2.573\n231.58,2.564\n231.72,2.559\n231.86,2.555\n232.00,2.555\n232.13,2.555\n232.27,2.550\n232.41,2.532\n232.55,2.523\n232.68,2.523\n232.82,2.523\n232.96,2.523\n233.10,2.523\n233.52,2.495\n233.65,2.491\n233.79,2.491\n233.93,2.491\n234.07,2.454\n234.21,2.454\n234.35,2.454\n234.49,2.445\n234.63,2.445\n234.77,2.441\n234.91,2.441\n235.05,2.436\n235.20,2.436\n235.34,2.441\n235.48,2.441\n235.62,2.441\n235.76,2.441\n235.90,2.441\n236.05,2.441\n236.19,2.441\n236.33,2.441\n236.47,2.441\n236.61,2.441\n236.76,2.441\n236.90,2.441\n237.04,2.441\n237.19,2.441\n237.33,2.441\n237.47,2.441\n237.62,2.441\n237.76,2.445\n237.91,2.445\n238.05,2.450\n238.20,2.450\n238.34,2.450\n238.49,2.454\n238.63,2.454\n238.78,2.454\n238.92,2.454\n239.07,2.459\n239.21,2.459\n239.36,2.459\n239.51,2.463\n239.65,2.463\n239.80,2.463\n239.94,2.468\n240.09,2.468\n240.24,2.468\n240.39,2.473\n240.53,2.473\n240.68,2.477\n240.83,2.486\n240.98,2.491\n241.12,2.491\n241.27,2.500\n241.42,2.505\n241.57,2.509\n241.72,2.509\n241.87,2.514\n242.02,2.518\n242.17,2.518\n242.32,2.523\n242.47,2.537\n242.62,2.532\n242.77,2.527\n242.92,2.527\n243.07,2.532\n243.22,2.537\n243.37,2.541\n243.52,2.546\n243.67,2.550\n243.82,2.550\n243.98,2.555\n244.13,2.559\n244.28,2.564\n244.43,2.564\n244.58,2.569\n244.74,2.569\n244.89,2.573\n245.04,2.573\n245.20,2.578\n245.35,2.578\n245.50,2.587\n245.66,2.591\n245.81,2.601\n245.96,2.591\n246.12,2.633\n246.27,2.628\n246.43,2.623\n246.58,2.623\n246.74,2.633\n246.89,2.637\n247.05,2.637\n247.36,2.655\n247.52,2.651\n247.67,2.651\n247.83,2.655\n247.99,2.655\n248.46,2.678\n248.61,2.674\n248.77,2.674\n248.93,2.674\n249.09,2.678\n249.25,2.678\n249.41,2.683\n249.56,2.688\n249.72,2.692\n249.88,2.692\n250.04,2.697\n250.20,2.701\n250.36,2.706\n250.52,2.710\n250.68,2.715\n250.84,2.720\n251.00,2.756\n251.16,2.756\n251.32,2.756\n251.48,2.756\n251.65,2.756\n251.81,2.756\n251.97,2.765\n252.13,2.765\n252.29,2.774\n252.46,2.774\n252.62,2.784\n252.78,2.788\n252.94,2.825\n253.11,2.820\n253.27,2.820\n253.43,2.820\n253.60,2.820\n253.76,2.834\n253.93,2.834\n254.09,2.834\n254.26,2.838\n254.42,2.848\n254.59,2.852\n254.75,2.861\n254.92,2.866\n255.08,2.875\n255.25,2.880\n255.42,2.889\n255.58,2.893\n255.75,2.907\n255.92,2.912\n256.08,2.916\n256.25,2.939\n256.42,2.934\n256.59,2.934\n256.75,2.939\n256.92,2.948\n257.09,2.953\n257.26,2.962\n257.43,2.966\n257.60,2.976\n257.77,2.980\n257.94,2.989\n258.11,2.998\n258.28,3.008\n258.45,3.017\n258.62,3.021\n258.79,3.030\n258.96,3.040\n259.47,3.058\n259.64,3.062\n259.82,3.067\n260.16,3.085\n260.33,3.085\n260.51,3.090\n260.68,3.099\n260.85,3.127\n261.03,3.113\n261.20,3.117\n261.37,3.127\n261.55,3.131\n261.72,3.140\n261.90,3.145\n262.07,3.154\n262.25,3.159\n262.42,3.168\n262.60,3.172\n262.77,3.177\n262.95,3.186\n263.13,3.191\n263.30,3.218\n263.48,3.213\n263.66,3.213\n263.84,3.218\n264.01,3.227\n264.19,3.232\n264.37,3.241\n264.55,3.245\n264.73,3.255\n264.90,3.255\n265.08,3.277\n265.26,3.268\n265.44,3.277\n265.62,3.287\n265.80,3.296\n265.98,3.296\n266.16,3.305\n266.34,3.309\n266.52,3.319\n266.71,3.323\n266.89,3.332\n267.07,3.337\n267.25,3.346\n267.43,3.351\n267.62,3.360\n267.80,3.369\n267.98,3.373\n268.17,3.378\n268.35,3.415\n268.53,3.405\n268.72,3.405\n268.90,3.405\n269.09,3.415\n269.27,3.442\n269.45,3.438\n269.64,3.433\n269.83,3.438\n270.01,3.447\n270.20,3.451\n270.38,3.460\n270.57,3.465\n270.76,3.474\n270.94,3.479\n271.13,3.488\n271.32,3.492\n271.51,3.502\n271.69,3.506\n272.07,3.524\n272.26,3.520\n272.45,3.524\n272.64,3.529\n273.02,3.543\n273.21,3.543\n273.40,3.547\n273.59,3.547\n273.78,3.552\n273.97,3.556\n274.16,3.561\n274.36,3.566\n274.55,3.570\n274.74,3.575\n274.93,3.579\n275.13,3.584\n275.32,3.588\n275.51,3.593\n275.71,3.598\n275.90,3.607\n276.09,3.616\n276.29,3.620\n276.48,3.625\n276.68,3.634\n276.87,3.639\n277.66,3.652\n277.85,3.652\n278.05,3.657\n278.25,3.662\n278.45,3.662\n278.64,3.662\n278.84,3.666\n279.04,3.666\n279.24,3.671\n279.44,3.671\n279.64,3.675\n279.84,3.675\n280.04,3.675\n280.24,3.675\n280.44,3.675\n280.64,3.675\n280.84,3.675\n281.04,3.675\n281.24,3.675\n281.44,3.675\n281.65,3.675\n281.85,3.675\n282.05,3.675\n282.25,3.675\n283.07,3.666\n283.27,3.666\n283.48,3.666\n283.68,3.666\n284.51,3.652\n284.71,3.643\n284.92,3.643\n285.13,3.648\n285.33,3.648\n286.17,3.630\n286.38,3.630\n286.59,3.625\n286.80,3.625\n287.01,3.625\n287.22,3.620\n287.43,3.616\n287.64,3.611\n287.85,3.611\n288.06,3.607\n288.27,3.602\n288.48,3.598\n288.70,3.593\n288.91,3.588\n289.12,3.584\n289.33,3.579\n289.55,3.575\n289.76,3.570\n289.98,3.570\n290.19,3.566\n290.41,3.566\n290.62,3.566\n290.84,3.566\n291.05,3.566\n291.27,3.561\n291.48,3.561\n291.70,3.570\n291.92,3.556\n292.14,3.556\n292.35,3.547\n292.57,3.547\n292.79,3.538\n293.01,3.534\n293.23,3.534\n293.45,3.534\n293.67,3.520\n293.89,3.515\n294.11,3.515\n294.33,3.511\n294.55,3.511\n294.77,3.506\n294.99,3.506\n295.22,3.502\n295.44,3.497\n295.66,3.497\n295.88,3.497\n296.11,3.492\n296.33,3.492\n296.55,3.492\n296.78,3.492\n297.00,3.492\n297.23,3.492\n298.81,3.470\n299.04,3.460\n299.27,3.460\n299.50,3.465\n300.65,3.433\n300.88,3.428\n301.11,3.428\n301.34,3.428\n301.57,3.433\n302.50,3.410\n302.74,3.405\n302.97,3.401\n303.20,3.401\n303.44,3.396\n303.67,3.392\n303.91,3.387\n304.14,3.387\n304.38,3.383\n304.62,3.383\n304.85,3.378\n305.09,3.369\n305.33,3.364\n305.57,3.360\n305.80,3.360\n306.04,3.355\n306.28,3.355\n306.76,3.314\n307.00,3.314\n307.24,3.314\n307.48,3.277\n307.72,3.273\n307.97,3.273\n308.21,3.227\n308.45,3.204\n308.69,3.181\n308.94,3.181\n309.18,3.122\n309.42,3.122\n309.67,3.099\n309.91,3.053\n310.16,3.030\n310.40,3.003\n310.65,2.985\n310.90,2.980\n311.14,2.934\n311.39,2.898\n311.64,2.889\n311.88,2.889\n312.13,2.852\n312.38,2.779\n312.63,2.774\n312.88,2.774\n313.13,2.738\n313.38,2.692\n313.63,2.619\n313.88,2.591\n314.13,2.578\n314.38,2.527\n314.64,2.486\n314.89,2.482\n315.14,2.404\n315.40,2.386\n315.65,2.372\n315.90,2.326\n316.16,2.290\n316.41,2.285\n316.67,2.248\n316.92,2.216\n317.18,2.171\n317.44,2.120\n317.70,2.116\n317.95,2.079\n318.21,2.038\n318.47,2.020\n318.73,1.983\n318.99,1.960\n319.25,1.910\n319.51,1.864\n319.77,1.851\n320.03,1.809\n320.29,1.764\n320.55,1.736\n320.81,1.691\n321.08,1.654\n321.34,1.604\n321.60,1.558\n321.87,1.512\n324.80,1.210\n##END=\n'