b'##TITLE=2-Butenedioic acid, 2-methyl-, (E)-\n##JCAMP-DX=4.24\n##DATA TYPE=UV/VIS SPECTRUM\n##ORIGIN=INSTITUTE OF ENERGY PROBLEMS OF CHEMICAL PHYSICS, RAS\n##OWNER=INEP CP RAS, NIST OSRD\nCollection (C) 2007 copyright by the U.S. Secretary of Commerce\non behalf of the United States of America. All rights reserved.\n##CAS REGISTRY NO=498-24-8\n##MOLFORM=C5H6O4\n##MP=204.5\n##BP=sub\n##SOURCE REFERENCE=RAS UV No. 2544\n##$NIST SQUIB=1954JON/WHI1865-1868\n##$NIST SOURCE=TSGMTE\n##SPECTROMETER/DATA SYSTEM=n.i.g.\n##XUNITS=Wavelength (nm)\n##YUNITS=Logarithm epsilon\n##XFACTOR=1.000000\n##YFACTOR=1.000000\n##FIRSTX=208.1169\n##LASTX=291.8798\n##FIRSTY=3.88454\n##MAXX=291.88\n##MINX=208.117\n##MAXY=3.88454\n##MINY=1.70641\n##NPOINTS=303\n##$REF AUTHOR=Jones, E.R.H.; Whitham, G.H.; Whiting, M.C.\n##$REF TITLE=Researches on acetylenic compounds. Part XLIV. The reaction between nickel carbonyl and some esters of \xabomega\xbb-acetylenic acids\n##$REF JOURNAL=J. Chem. Soc.\n##$REF PAGE=1865-1868\n##$REF DATE=1954\n##XYPOINTS=(XY..XY)\n208.1169,3.884540\n208.1169,3.884540\n208.8264,3.880957\n209.2291,3.871788\n209.5458,3.876231\n210.2300,3.860302\n210.2739,3.870466\n211.0091,3.863769\n211.1316,3.849935\n211.7501,3.856247\n211.9458,3.840539\n212.4955,3.848003\n212.6847,3.831968\n213.2437,3.839145\n213.3603,3.824071\n213.9846,3.816703\n213.9935,3.829779\n214.5696,3.809715\n214.7434,3.820011\n215.1273,3.802960\n215.4919,3.809945\n215.6698,3.796291\n216.2091,3.789559\n216.2376,3.799690\n216.7571,3.782616\n216.9792,3.789349\n217.3258,3.775316\n217.7151,3.779030\n217.9274,3.767511\n218.4441,3.768837\n218.5737,3.759052\n219.1645,3.758878\n219.2769,3.749792\n219.8751,3.749258\n220.0489,3.739584\n220.1120,3.743823\n220.5883,3.737720\n220.9017,3.728279\n221.0645,3.731617\n221.5407,3.725515\n221.8473,3.715731\n221.8473,3.715731\n221.9683,3.718020\n222.5743,3.703276\n222.9236,3.703088\n223.3015,3.690820\n223.7260,3.690501\n224.0287,3.678365\n224.4127,3.679639\n224.7562,3.665909\n225.0206,3.669879\n225.4840,3.653453\n225.5867,3.660602\n226.1480,3.651188\n226.2121,3.640997\n226.7416,3.641014\n226.9407,3.628540\n227.4045,3.629461\n227.6697,3.616083\n228.1736,3.615907\n228.3994,3.603626\n229.0859,3.599733\n229.1296,3.591168\n229.1296,3.591168\n229.8511,3.576841\n230.1786,3.580316\n230.4862,3.572440\n230.5615,3.562375\n231.2613,3.555510\n231.2621,3.547757\n231.9542,3.532972\n232.0364,3.538581\n232.6391,3.518005\n232.8115,3.521651\n233.3181,3.502842\n233.5866,3.504722\n233.9926,3.487469\n234.3617,3.487792\n234.6638,3.471872\n234.7893,3.480297\n235.0140,3.474395\n235.2387,3.468492\n235.3330,3.456035\n235.4634,3.462590\n235.7710,3.454713\n235.9522,3.450612\n236.0017,3.439946\n236.1386,3.446295\n236.3277,3.441869\n236.6710,3.423589\n236.7526,3.429130\n237.3423,3.406950\n237.5331,3.408118\n238.0168,3.390016\n238.3146,3.387105\n238.6960,3.372771\n239.0984,3.366091\n239.3811,3.355201\n239.8856,3.345074\n240.0686,3.327757\n240.0686,3.327757\n240.0703,3.331077\n240.0719,3.334291\n240.0734,3.337292\n240.0734,3.337292\n240.1932,3.337197\n240.4589,3.321140\n240.7662,3.313635\n240.8055,3.317417\n241.0476,3.296928\n241.0476,3.296928\n241.3552,3.288478\n241.4052,3.297344\n241.9700,3.269095\n241.9939,3.276990\n242.5731,3.256364\n242.7664,3.242558\n243.1443,3.235476\n243.6191,3.212648\n243.7092,3.214336\n244.2693,3.192954\n244.4023,3.183143\n244.8262,3.171339\n244.9906,3.157824\n245.2585,3.140469\n245.2585,3.140469\n245.3814,3.149503\n245.9366,3.127454\n246.4932,3.105202\n246.6573,3.088767\n247.0529,3.082758\n247.4398,3.058125\n247.6171,3.060132\n247.8343,3.042101\n248.0688,3.034252\n248.0688,3.034252\n248.1876,3.037333\n248.2951,3.023290\n248.7085,3.005570\n248.7658,3.014371\n249.2735,2.982417\n249.3533,2.991257\n249.8357,2.973702\n249.9547,2.955161\n250.3825,2.952777\n250.7164,2.925127\n250.9275,2.931629\n251.4710,2.910280\n251.5231,2.893643\n252.0134,2.888752\n252.3394,2.862035\n252.5551,2.867069\n253.0962,2.845251\n253.1297,2.831631\n253.6373,2.823323\n253.8584,2.803757\n254.1786,2.801306\n254.4901,2.779740\n254.7205,2.779222\n254.9893,2.760908\n255.2632,2.757095\n255.3203,2.748587\n255.4477,2.744105\n255.4477,2.744105\n255.8017,2.727005\n255.8071,2.734947\n256.1043,2.713656\n256.3010,2.701452\n256.3010,2.701452\n256.3527,2.712799\n256.7171,2.688220\n256.9000,2.690675\n257.4497,2.668597\n257.4658,2.660162\n258.0018,2.646588\n258.3105,2.626601\n258.5569,2.624669\n259.0152,2.596861\n259.1151,2.602864\n259.3434,2.580265\n259.3434,2.580265\n259.4802,2.590172\n259.5836,2.575312\n259.8299,2.569529\n260.0696,2.570960\n260.1638,2.560563\n260.6590,2.551535\n260.6671,2.546065\n261.2482,2.532005\n261.4212,2.523682\n261.5558,2.524129\n262.0543,2.506105\n262.5079,2.491065\n262.6991,2.486477\n263.4424,2.466033\n264.0087,2.445861\n264.0087,2.445861\n264.2362,2.445560\n264.6659,2.429841\n265.0327,2.425846\n265.3221,2.414162\n265.7838,2.407676\n265.9779,2.398806\n266.4418,2.391839\n266.6337,2.383754\n266.9587,2.379121\n267.2898,2.368990\n267.3262,2.371197\n267.8606,2.359996\n267.9466,2.354496\n268.1151,2.353363\n268.3078,2.345613\n268.5569,2.340645\n268.6047,2.340254\n268.7229,2.337174\n268.8889,2.333703\n269.0549,2.330232\n269.2643,2.326246\n269.6703,2.314956\n269.9259,2.312456\n270.5899,2.298864\n270.6914,2.295400\n271.2567,2.285454\n271.7150,2.275630\n271.9268,2.272209\n272.6005,2.259109\n272.7439,2.255750\n273.2783,2.246138\n273.3605,2.242858\n273.9605,2.233279\n274.3319,2.226702\n274.6475,2.220513\n275.3033,2.210546\n275.3399,2.207823\n276.0379,2.195190\n276.2747,2.194391\n276.7420,2.182599\n277.2461,2.178235\n277.4527,2.170030\n277.6854,2.170254\n277.8643,2.167727\n278.0459,2.165197\n278.1703,2.157467\n278.1703,2.157467\n278.2328,2.162664\n278.8227,2.144276\n279.4694,2.130471\n279.6561,2.133866\n279.7157,2.133201\n279.7752,2.132323\n279.8346,2.131339\n280.1102,2.116070\n280.3913,2.118495\n280.4509,2.117829\n280.5103,2.116951\n280.5698,2.115968\n280.7447,2.101085\n281.3729,2.085532\n281.9943,2.069429\n282.2375,2.072667\n282.3560,2.069234\n282.4772,2.065798\n282.6037,2.062359\n282.6089,2.052788\n283.2164,2.035625\n283.3365,2.042220\n283.8165,2.017956\n284.0316,2.018754\n284.4090,1.999796\n284.7267,1.995183\n284.9938,1.981160\n285.4217,1.971399\n285.5705,1.962063\n285.6586,1.965964\n286.1389,1.942521\n286.2263,1.944048\n286.6989,1.922548\n286.7993,1.922128\n287.2501,1.902160\n287.3749,1.900206\n287.6241,1.895239\n287.7925,1.881373\n288.3256,1.860201\n288.3901,1.862654\n288.8493,1.838660\n289.1613,1.829960\n289.3634,1.816765\n289.8677,1.794531\n289.9352,1.797051\n290.3618,1.771972\n290.4176,1.779496\n290.8457,1.749106\n290.8457,1.749106\n290.8580,1.742754\n290.8756,1.736187\n290.8957,1.729511\n290.8957,1.729511\n290.9006,1.756076\n291.0946,1.726932\n291.3183,1.720942\n291.3889,1.732439\n291.7588,1.706406\n291.8798,1.708694\n##END=\n'