b'##TITLE=Trimethylene oxide\n##JCAMP-DX=4.24\n##DATA TYPE=UV/VIS SPECTRUM\n##ORIGIN=INSTITUTE OF ENERGY PROBLEMS OF CHEMICAL PHYSICS, RAS\n##OWNER=INEP CP RAS, NIST OSRD\nCollection (C) 2007 copyright by the U.S. Secretary of Commerce\non behalf of the United States of America. All rights reserved.\n##CAS REGISTRY NO=503-30-0\n##MOLFORM=C3H6O\n##MP=-97\n##BP=47.6\n##SOURCE REFERENCE=RAS UV No. 5778\n##$NIST SQUIB=1959FLE/AND351-354\n##$NIST SOURCE=TSGMTE\n##SPECTROMETER/DATA SYSTEM=Hilger fluorite prism vacuum spectrograph\n##XUNITS=Wavelength (nm)\n##YUNITS=Logarithm epsilon\n##XFACTOR=1.000000\n##YFACTOR=1.000000\n##FIRSTX=199.7013\n##LASTX=155.0919\n##FIRSTY=1.98676\n##MAXX=199.701\n##MINX=155.092\n##MAXY=3.71561\n##MINY=1.98676\n##NPOINTS=344\n##$REF AUTHOR=Fleming, G.; Anderson, M.M.; Harrison, A.J.; Pickett, L.W.\n##$REF TITLE=Effect of ring size on the far ultraviolet absorption and photolysis of cyclic ethers\n##$REF JOURNAL=J. Chem. Phys.\n##$REF VOLUME=30\n##$REF NUMBER=2\n##$REF PAGE=351-354\n##$REF DATE=1959\n##XYPOINTS=(XY..XY)\n199.7013,1.986764\n199.5700,2.011236\n199.4335,2.035584\n199.2925,2.059819\n199.1473,2.083952\n198.9984,2.107995\n198.8462,2.131960\n198.6911,2.155857\n198.5337,2.179698\n198.3744,2.203494\n198.2135,2.227257\n198.0515,2.250998\n197.8889,2.274729\n197.7261,2.298461\n197.5634,2.322204\n197.4014,2.345972\n197.2404,2.369774\n197.0809,2.393623\n197.0809,2.393623\n196.9455,2.418028\n196.8103,2.442409\n196.6751,2.466769\n196.5399,2.491109\n196.4047,2.515433\n196.2694,2.539744\n196.1340,2.564044\n195.9985,2.588336\n195.8627,2.612623\n195.7266,2.636907\n195.7266,2.636907\n195.4530,2.661712\n195.1799,2.686517\n194.9070,2.711322\n194.6343,2.736128\n194.3613,2.760934\n194.0880,2.785742\n194.0880,2.785742\n193.8009,2.804247\n193.5129,2.822590\n193.2244,2.840802\n192.9358,2.858911\n192.6477,2.876949\n192.3604,2.894946\n192.0744,2.912930\n191.7900,2.930933\n191.5077,2.948985\n191.2279,2.967115\n190.9511,2.985355\n190.6775,3.003733\n190.4077,3.022280\n190.1420,3.041026\n189.8808,3.060001\n189.6244,3.079235\n189.3733,3.098759\n189.1279,3.118602\n189.1279,3.118602\n188.9264,3.144309\n188.7376,3.169893\n188.5607,3.195414\n188.3954,3.220931\n188.2411,3.246502\n188.0972,3.272187\n187.9634,3.298045\n187.8392,3.324135\n187.8392,3.324135\n187.7608,3.324203\n187.6825,3.324271\n187.6043,3.324340\n187.6043,3.324340\n187.5056,3.306612\n187.3964,3.286497\n187.2742,3.264675\n187.1366,3.241822\n186.9814,3.218618\n186.8061,3.195742\n186.6085,3.173872\n186.3863,3.153688\n186.1374,3.135867\n185.8595,3.121088\n185.5505,3.110032\n185.2084,3.103375\n185.2084,3.103375\n184.8018,3.113182\n184.4175,3.124691\n183.9889,3.132701\n183.9889,3.132701\n183.7476,3.107233\n183.5443,3.079896\n183.3636,3.051257\n183.1900,3.021888\n183.1900,3.021888\n182.9990,3.004596\n182.7950,2.987315\n182.5785,2.970201\n182.3501,2.953408\n182.1103,2.937091\n181.8596,2.921408\n181.5987,2.906511\n181.3279,2.892557\n181.0479,2.879701\n180.7592,2.868098\n180.4624,2.857905\n180.1578,2.849274\n179.8461,2.842363\n179.5277,2.837326\n179.2033,2.834320\n178.8732,2.833497\n178.5380,2.835016\n178.1981,2.839030\n177.8541,2.845694\n177.5064,2.855166\n177.5064,2.855166\n177.3617,2.864851\n177.2173,2.874435\n177.0730,2.883816\n177.0730,2.883816\n176.9373,2.906591\n176.8137,2.929503\n176.7011,2.952537\n176.5983,2.975683\n176.5045,2.998926\n176.4186,3.022254\n176.3396,3.045654\n176.2665,3.069114\n176.1982,3.092620\n176.1339,3.116159\n176.0725,3.139719\n176.0131,3.163288\n175.9546,3.186851\n175.8960,3.210396\n175.8365,3.233911\n175.7750,3.257383\n175.7106,3.280798\n175.6422,3.304144\n175.5690,3.327408\n175.4899,3.350577\n175.4041,3.373639\n175.3105,3.396580\n175.2082,3.419387\n175.0963,3.442049\n174.9738,3.464551\n174.9738,3.464551\n174.8930,3.469169\n174.8107,3.473686\n174.7254,3.478004\n174.7254,3.478004\n174.6617,3.474881\n174.5950,3.471762\n174.5268,3.468644\n174.5268,3.468644\n174.4721,3.455809\n174.4130,3.439115\n174.3491,3.419146\n174.2798,3.396481\n174.2049,3.371702\n174.1239,3.345388\n174.0365,3.318121\n173.9422,3.290483\n173.8406,3.263053\n173.7314,3.236412\n173.6142,3.211142\n173.4886,3.187824\n173.3542,3.167037\n173.2107,3.149364\n173.0576,3.135386\n172.8947,3.125682\n172.7216,3.120834\n172.7216,3.120834\n172.5275,3.142292\n172.3483,3.164519\n172.1800,3.187290\n172.0182,3.210380\n171.8588,3.233566\n171.6976,3.256622\n171.5305,3.279325\n171.3534,3.301451\n171.1623,3.322775\n171.1623,3.322775\n171.0826,3.324208\n171.0000,3.325542\n170.9161,3.326676\n170.9161,3.326676\n170.8630,3.322499\n170.8085,3.318122\n170.7511,3.313647\n170.7511,3.313647\n170.6728,3.296450\n170.5792,3.275869\n170.4709,3.252628\n170.3485,3.227447\n170.2125,3.201048\n170.0634,3.174154\n169.9018,3.147486\n169.7282,3.121767\n169.5433,3.097717\n169.3476,3.076058\n169.1416,3.057514\n168.9258,3.042805\n168.7009,3.032653\n168.7009,3.032653\n168.3273,3.041800\n168.0315,3.058590\n167.7586,3.073563\n167.4546,3.077260\n167.4546,3.077260\n167.2603,3.057002\n167.0730,3.034806\n166.8879,3.011380\n166.7005,2.987428\n166.5063,2.963657\n166.3008,2.940771\n166.0797,2.919477\n165.8386,2.900482\n165.5731,2.884489\n165.5731,2.884489\n165.3298,2.880074\n165.1606,2.872643\n164.9364,2.856978\n164.9364,2.856978\n164.6786,2.861705\n164.4996,2.870483\n164.3673,2.880356\n164.2500,2.888365\n164.1161,2.891551\n163.9342,2.886955\n163.6734,2.871619\n163.6734,2.871619\n163.3668,2.875006\n163.0297,2.883894\n162.7667,2.897250\n162.7667,2.897250\n162.7417,2.922599\n162.7167,2.947948\n162.6918,2.973297\n162.6668,2.998647\n162.6419,3.023996\n162.6170,3.049345\n162.5920,3.074694\n162.5671,3.100043\n162.5422,3.125392\n162.5173,3.150742\n162.4924,3.176091\n162.4675,3.201440\n162.4427,3.226789\n162.4427,3.226789\n162.4116,3.226825\n162.3780,3.226865\n162.3445,3.234188\n162.3440,3.231895\n162.3436,3.229502\n162.3431,3.226905\n162.3431,3.226905\n162.2962,3.226960\n162.2873,3.199057\n162.2780,3.171066\n162.2682,3.143011\n162.2576,3.114913\n162.2458,3.086794\n162.2458,3.086794\n162.1498,3.078695\n162.0612,3.074431\n161.9780,3.091205\n161.9773,3.087547\n161.9766,3.083788\n161.9758,3.079826\n161.9040,3.070349\n161.9040,3.070349\n161.8276,3.044160\n161.7466,3.017868\n161.6477,2.991487\n161.5181,2.965033\n161.3447,2.938522\n161.2750,2.936784\n161.1346,2.938450\n161.0662,2.940538\n161.0141,2.979737\n161.0111,2.944836\n161.0111,2.944836\n160.9872,3.012548\n160.8628,3.043351\n160.8090,3.032033\n160.7840,3.021456\n160.7590,3.010678\n160.7339,2.999798\n160.6418,2.998086\n160.5196,3.019630\n160.3963,3.041175\n160.2706,3.062723\n160.2706,3.062723\n160.0610,3.085209\n159.8945,3.107549\n159.7644,3.129994\n159.6641,3.152799\n159.5871,3.176215\n159.5270,3.200498\n159.4773,3.225898\n159.4317,3.252670\n159.4317,3.252670\n159.3301,3.252793\n159.2286,3.252916\n159.1273,3.253039\n159.1273,3.253039\n159.1054,3.256253\n159.0835,3.259466\n159.0616,3.262680\n159.0616,3.262680\n159.0164,3.262735\n158.9700,3.262791\n158.9211,3.262850\n158.9211,3.262850\n158.6910,3.243959\n158.4393,3.235869\n158.1705,3.236452\n157.8891,3.243577\n157.5993,3.255114\n157.3056,3.268934\n157.3056,3.268934\n157.1828,3.289894\n157.0589,3.310654\n156.9328,3.331315\n156.9328,3.331315\n156.7483,3.391220\n156.5895,3.442536\n156.4543,3.485984\n156.3408,3.522287\n156.2469,3.552167\n156.1707,3.576347\n156.1103,3.595549\n156.0637,3.610494\n156.0291,3.621905\n156.0045,3.630506\n155.9880,3.637017\n155.9779,3.642161\n155.9721,3.646660\n155.9201,3.627605\n155.8328,3.606806\n155.7491,3.592276\n155.5974,3.571559\n155.5329,3.571641\n155.5089,3.573693\n155.4739,3.582206\n155.4067,3.604090\n155.2864,3.646256\n155.0919,3.715614\n##END=\n'