b'##TITLE=dihydro-2-thioxo-4,6(1H,5H)-pyrimidinedione\n##JCAMP-DX=4.24\n##DATA TYPE=UV/VIS SPECTRUM\n##ORIGIN=INSTITUTE OF ENERGY PROBLEMS OF CHEMICAL PHYSICS, RAS\n##OWNER=INEP CP RAS, NIST OSRD\nCollection (C) 2007 copyright by the U.S. Secretary of Commerce\non behalf of the United States of America. All rights reserved.\n##CAS REGISTRY NO=504-17-6\n##MOLFORM=C4H4N2O2S\n##MP=235 dec.\n##SOURCE REFERENCE=RAS UV No. 23936\n##$NIST SQUIB=1974IVI/1968\n##$NIST SOURCE=TYUGLMTE\n##SPECTROMETER/DATA SYSTEM=SF-16\n##XUNITS=Wavelength (nm)\n##YUNITS=Logarithm epsilon\n##XFACTOR=1.0\n##YFACTOR=1.0\n##FIRSTX=197.398\n##LASTX=303.133\n##FIRSTY=3.619\n##MAXX=303.133\n##MINX=197.398\n##MAXY=4.3\n##MINY=3.576\n##NPOINTS=109\n##$REF AUTHOR=Ivin, B.A.; et al.\n##$REF JOURNAL=Zhur. Organ. Khim.\n##$REF VOLUME=10\n##$REF PAGE=1968\n##$REF DATE=1974\n##XYPOINTS=(XY..XY)\n197.398,3.619\n198.398,3.625\n199.398,3.627\n200.398,3.628\n201.398,3.630\n202.398,3.634\n203.398,3.640\n204.398,3.648\n205.398,3.657\n206.398,3.667\n207.398,3.677\n208.398,3.686\n209.398,3.694\n210.398,3.700\n211.398,3.705\n212.398,3.707\n213.398,3.707\n214.398,3.706\n215.398,3.705\n216.398,3.703\n217.398,3.703\n218.398,3.705\n219.398,3.710\n220.398,3.718\n221.165,3.725\n222.165,3.741\n223.165,3.756\n224.165,3.772\n225.165,3.789\n226.165,3.807\n227.165,3.826\n228.165,3.844\n229.165,3.861\n230.165,3.876\n231.165,3.889\n231.766,3.895\n232.766,3.907\n233.766,3.918\n234.766,3.921\n235.766,3.915\n236.766,3.900\n237.766,3.875\n238.766,3.844\n239.766,3.809\n240.766,3.772\n241.683,3.736\n242.683,3.698\n243.683,3.663\n244.683,3.632\n245.683,3.606\n246.683,3.588\n247.683,3.577\n248.683,3.576\n249.683,3.585\n250.683,3.606\n251.429,3.633\n252.429,3.670\n253.429,3.707\n254.429,3.742\n255.429,3.777\n256.429,3.810\n257.429,3.842\n258.429,3.874\n259.429,3.905\n260.429,3.934\n261.429,3.963\n262.429,3.990\n263.429,4.017\n264.429,4.043\n265.429,4.067\n266.429,4.091\n267.429,4.114\n268.429,4.135\n268.527,4.140\n269.527,4.155\n270.527,4.174\n271.527,4.194\n272.527,4.214\n273.527,4.233\n274.527,4.250\n275.527,4.265\n276.527,4.277\n277.527,4.286\n278.527,4.293\n279.527,4.298\n280.527,4.300\n281.527,4.300\n282.527,4.298\n283.527,4.294\n284.527,4.289\n285.527,4.282\n286.527,4.274\n287.527,4.262\n288.361,4.250\n289.361,4.230\n290.361,4.208\n291.361,4.185\n292.361,4.161\n293.361,4.135\n294.361,4.107\n295.361,4.077\n296.361,4.044\n297.361,4.010\n298.361,3.972\n299.133,3.941\n300.133,3.898\n301.133,3.846\n302.133,3.788\n303.133,3.722\n##END=\n'