b'##TITLE=1,3-Pentadiene\n##JCAMP-DX=4.24\n##DATA TYPE=UV/VIS SPECTRUM\n##ORIGIN=INSTITUTE OF ENERGY PROBLEMS OF CHEMICAL PHYSICS, RAS\n##OWNER=INEP CP RAS, NIST OSRD\nCollection (C) 2007 copyright by the U.S. Secretary of Commerce\non behalf of the United States of America. All rights reserved.\n##CAS REGISTRY NO=504-60-9\n##MOLFORM=C5H8\n##BP=41.8\n##SOURCE REFERENCE=RAS UV No. 19927\n##$NIST SQUIB=1966PER/BRAa3/1\n##$NIST SOURCE=TYUGLMTE\n##SPECTROMETER/DATA SYSTEM=Zeiss PMQ II\n##XUNITS=Wavelength (nm)\n##YUNITS=Logarithm epsilon\n##XFACTOR=1.0\n##YFACTOR=1.0\n##FIRSTX=183.31\n##LASTX=255.47\n##FIRSTY=3.483\n##MAXX=255.47\n##MINX=183.31\n##MAXY=4.423\n##MINY=1.444\n##NPOINTS=138\n##$REF AUTHOR=Perkampus, H.-H.; Braunschweig, T.H.\n##$REF JOURNAL=UV atlas of organic compounds\n##$REF VOLUME=1\n##$REF PAGE=A3/1\n##$REF DATE=1966\n##XYPOINTS=(XY..XY)\n183.31,3.483\n183.96,3.487\n184.54,3.493\n185.13,3.500\n185.79,3.506\n186.45,3.513\n187.05,3.519\n187.65,3.530\n188.25,3.540\n188.79,3.553\n189.32,3.564\n189.86,3.575\n190.40,3.587\n190.94,3.598\n191.49,3.611\n192.04,3.624\n192.51,3.637\n192.99,3.649\n193.55,3.662\n194.11,3.675\n194.51,3.690\n195.00,3.703\n195.49,3.716\n196.06,3.728\n196.47,3.743\n196.97,3.756\n197.47,3.771\n197.97,3.786\n198.47,3.801\n198.90,3.816\n199.40,3.831\n199.83,3.848\n200.34,3.861\n200.77,3.878\n201.29,3.893\n201.73,3.908\n202.16,3.923\n202.60,3.940\n203.13,3.955\n203.57,3.972\n204.01,3.989\n204.55,4.004\n205.00,4.021\n205.54,4.036\n205.90,4.053\n206.44,4.068\n206.81,4.085\n207.36,4.100\n207.73,4.117\n208.19,4.132\n208.65,4.147\n209.21,4.162\n209.68,4.179\n210.15,4.196\n210.62,4.211\n211.10,4.229\n211.67,4.243\n212.15,4.261\n212.73,4.276\n213.31,4.290\n213.90,4.305\n214.48,4.318\n215.08,4.333\n215.67,4.348\n216.37,4.359\n217.07,4.372\n217.88,4.380\n218.69,4.391\n219.52,4.399\n220.45,4.404\n221.28,4.412\n222.12,4.419\n223.07,4.423\n224.03,4.423\n224.79,4.410\n225.55,4.397\n226.20,4.382\n226.86,4.370\n227.52,4.357\n228.07,4.342\n228.74,4.329\n229.53,4.316\n230.77,4.284\n230.89,4.280\n231.00,4.278\n231.12,4.276\n231.23,4.273\n231.34,4.271\n231.46,4.267\n231.57,4.265\n231.69,4.263\n232.15,4.248\n232.61,4.229\n233.07,4.205\n233.54,4.179\n234.00,4.152\n234.47,4.124\n234.94,4.092\n235.42,4.060\n235.89,4.021\n236.37,3.966\n236.85,3.912\n237.33,3.861\n237.81,3.810\n238.29,3.756\n238.78,3.692\n239.27,3.643\n239.76,3.592\n240.25,3.547\n240.75,3.506\n241.24,3.444\n241.74,3.372\n242.24,3.307\n242.74,3.248\n243.25,3.181\n243.76,3.085\n244.26,3.004\n244.78,2.923\n245.29,2.829\n245.80,2.754\n246.32,2.673\n246.84,2.606\n247.36,2.510\n247.89,2.440\n248.41,2.371\n248.94,2.309\n249.47,2.222\n250.01,2.168\n250.54,2.094\n251.08,2.029\n251.62,1.942\n252.16,1.873\n252.71,1.805\n253.25,1.737\n253.80,1.649\n254.35,1.578\n254.91,1.514\n255.47,1.444\n##END=\n'