b'##TITLE=4-Pyridinamine\n##JCAMP-DX=4.24\n##DATA TYPE=UV/VIS SPECTRUM\n##ORIGIN=INSTITUTE OF ENERGY PROBLEMS OF CHEMICAL PHYSICS, RAS\n##OWNER=INEP CP RAS, NIST OSRD\nCollection (C) 2007 copyright by the U.S. Secretary of Commerce\non behalf of the United States of America. All rights reserved.\n##CAS REGISTRY NO=504-24-5\n##MOLFORM=C5H6N2\n##MP=158.5\n##SOURCE REFERENCE=RAS UV No. 12955\n##$NIST SQUIB=1958BLI/SHI1241\n##$NIST SOURCE=TYUGLMTE\n##SPECTROMETER/DATA SYSTEM=n.i.g.\n##XUNITS=Wavelength (nm)\n##YUNITS=Logarithm epsilon\n##XFACTOR=1.0\n##YFACTOR=1.0\n##FIRSTX=210.31\n##LASTX=286.7\n##FIRSTY=3.201\n##MAXX=286.7\n##MINX=210.31\n##MAXY=3.784\n##MINY=1.951\n##NPOINTS=204\n##$REF AUTHOR=Blizniukov, V.I.; Shinkorenko, N.T.\n##$REF JOURNAL=Zhur. Obschei Khim.\n##$REF VOLUME=28\n##$REF PAGE=1241\n##$REF DATE=1958\n##XYPOINTS=(XY..XY)\n210.31,3.201\n210.71,3.256\n210.96,3.296\n211.23,3.356\n211.60,3.410\n211.94,3.459\n212.27,3.483\n212.57,3.493\n212.90,3.494\n213.15,3.482\n213.47,3.459\n213.86,3.410\n214.18,3.372\n214.47,3.329\n214.83,3.258\n215.18,3.169\n215.47,3.074\n215.79,2.934\n216.12,2.833\n216.42,2.771\n216.76,2.706\n217.08,2.655\n217.40,2.604\n217.73,2.541\n218.02,2.472\n218.37,2.420\n218.70,2.373\n219.02,2.292\n219.34,2.198\n219.66,2.105\n219.98,2.039\n220.26,2.009\n220.63,1.989\n220.85,1.981\n221.12,1.975\n221.46,1.968\n221.90,1.961\n222.23,1.954\n222.56,1.951\n222.88,1.951\n223.21,1.951\n223.81,1.953\n224.47,1.962\n224.83,1.968\n225.14,1.976\n225.46,1.982\n225.78,1.989\n226.09,1.997\n226.43,2.005\n226.75,2.014\n227.08,2.024\n227.42,2.034\n227.75,2.048\n228.04,2.058\n228.36,2.071\n228.70,2.087\n229.51,2.128\n230.90,2.197\n232.12,2.259\n233.60,2.335\n235.11,2.411\n236.09,2.460\n236.42,2.477\n236.74,2.496\n237.07,2.509\n237.39,2.534\n237.67,2.553\n238.00,2.568\n238.35,2.591\n238.69,2.626\n239.00,2.649\n239.32,2.668\n239.64,2.684\n240.21,2.715\n240.61,2.744\n240.93,2.756\n241.26,2.782\n241.58,2.807\n242.06,2.839\n242.45,2.858\n242.87,2.877\n243.19,2.902\n243.51,2.915\n243.83,2.934\n244.18,2.959\n244.48,2.982\n244.80,2.998\n245.12,3.004\n245.45,3.023\n245.77,3.042\n246.09,3.061\n246.41,3.080\n246.73,3.093\n247.05,3.114\n247.41,3.129\n247.70,3.150\n248.02,3.175\n248.35,3.194\n248.67,3.207\n249.02,3.226\n249.31,3.245\n249.62,3.265\n249.96,3.270\n250.25,3.284\n250.60,3.296\n250.92,3.315\n251.25,3.321\n251.50,3.346\n251.86,3.365\n252.19,3.385\n252.54,3.397\n252.86,3.410\n253.18,3.423\n253.50,3.448\n253.83,3.461\n254.37,3.493\n254.79,3.518\n255.11,3.531\n255.44,3.550\n255.76,3.569\n256.13,3.590\n256.55,3.617\n257.05,3.645\n257.33,3.655\n257.69,3.668\n257.98,3.681\n258.36,3.694\n258.65,3.704\n259.30,3.725\n259.60,3.732\n259.95,3.740\n260.27,3.746\n260.59,3.753\n260.92,3.759\n261.24,3.765\n261.56,3.772\n261.88,3.778\n262.21,3.784\n262.53,3.784\n262.85,3.784\n263.17,3.784\n264.46,3.765\n264.78,3.759\n265.11,3.753\n265.43,3.746\n265.72,3.742\n266.07,3.734\n266.34,3.724\n266.72,3.715\n267.02,3.706\n267.36,3.696\n267.70,3.685\n268.24,3.661\n268.73,3.640\n269.02,3.631\n269.30,3.619\n269.62,3.607\n269.94,3.594\n270.26,3.575\n270.41,3.566\n270.77,3.550\n271.23,3.524\n271.54,3.507\n271.87,3.486\n272.12,3.471\n272.42,3.455\n272.71,3.432\n273.09,3.407\n273.48,3.378\n273.81,3.359\n274.13,3.340\n274.45,3.321\n274.78,3.309\n275.10,3.290\n275.55,3.265\n275.97,3.231\n276.36,3.201\n276.71,3.179\n277.03,3.156\n277.36,3.136\n277.68,3.118\n278.00,3.093\n278.32,3.080\n278.64,3.061\n278.97,3.042\n279.34,3.014\n279.75,2.985\n280.17,2.951\n280.63,2.900\n280.97,2.860\n281.39,2.805\n281.78,2.754\n282.05,2.704\n282.44,2.630\n282.74,2.574\n283.22,2.513\n283.62,2.465\n284.44,2.372\n284.86,2.311\n285.27,2.250\n285.71,2.197\n286.03,2.163\n286.37,2.134\n286.70,2.103\n##END=\n'