b'##TITLE=Aminopyrazine\n##JCAMP-DX=4.24\n##DATA TYPE=UV/VIS SPECTRUM\n##ORIGIN=INSTITUTE OF ENERGY PROBLEMS OF CHEMICAL PHYSICS, RAS\n##OWNER=INEP CP RAS, NIST OSRD\nCollection (C) 2007 copyright by the U.S. Secretary of Commerce\non behalf of the United States of America. All rights reserved.\n##CAS REGISTRY NO=5049-61-6\n##MOLFORM=C4H5N3\n##MP=125-6\n##SOURCE REFERENCE=RAS UV No. 18\n##$NIST SQUIB=1957PRO/SKO1360-1363\n##$NIST SOURCE=TSGMTE\n##SPECTROMETER/DATA SYSTEM=Spectrophotometer SF-16\n##XUNITS=Wavelength (nm)\n##YUNITS=Logarithm epsilon\n##XFACTOR=1.000000\n##YFACTOR=1.000000\n##FIRSTX=210.0000\n##LASTX=319.0000\n##FIRSTY=3.65\n##MAXX=319\n##MINX=210\n##MAXY=4.22\n##MINY=2.65\n##NPOINTS=110\n##$REF AUTHOR=Protopopova, T.V.; Skoldinov, A.P.\n##$REF TITLE=Synthesis with 1,1,3,3-tetraalkoxypropanes. Preparation of the simpler heterocyclic compounds\n##$REF JOURNAL=Zh. Obshch. Khim.\n##$REF VOLUME=27\n##$REF PAGE=1360-1363\n##$REF DATE=1957\n##XYPOINTS=(XY..XY)\n210.0000,3.649997\n211.0000,3.690000\n212.0000,3.730000\n213.0000,3.770000\n214.0000,3.780000\n215.0000,3.820000\n216.0000,3.870000\n217.0000,3.920000\n218.0000,3.970000\n219.0000,4.010000\n220.0000,4.060018\n221.0000,4.100000\n222.0000,4.120000\n223.0000,4.140000\n224.0000,4.160000\n225.0000,4.190000\n226.0000,4.210000\n227.0000,4.210000\n228.0000,4.210000\n229.0000,4.220000\n230.0000,4.189995\n231.0000,4.160000\n232.0000,4.110000\n233.0000,4.060000\n234.0000,4.010000\n235.0000,3.960000\n236.0000,3.910000\n237.0000,3.860000\n238.0000,3.800000\n239.0000,3.750000\n240.0000,3.700002\n241.0000,3.650000\n242.0000,3.540000\n243.0000,3.410000\n244.0000,3.270000\n245.0000,3.140000\n246.0000,3.010000\n247.0000,2.880000\n248.0000,2.750000\n249.0000,2.710000\n250.0000,2.670005\n251.0000,2.660000\n252.0000,2.650000\n253.0000,2.660000\n254.0000,2.680000\n255.0000,2.700000\n256.0000,2.710000\n257.0000,2.730000\n258.0000,2.750000\n259.0000,2.780000\n260.0000,2.809997\n261.0000,2.840000\n262.0000,2.870000\n263.0000,2.900000\n264.0000,2.930000\n265.0000,2.960000\n266.0000,2.990000\n267.0000,3.020000\n268.0000,3.050000\n269.0000,3.070000\n270.0000,3.090011\n271.0000,3.110000\n272.0000,3.130000\n273.0000,3.150000\n274.0000,3.170000\n275.0000,3.190000\n276.0000,3.200000\n277.0000,3.220000\n278.0000,3.240000\n279.0000,3.260000\n280.0000,3.280009\n281.0000,3.300000\n282.0000,3.320000\n283.0000,3.340000\n284.0000,3.360000\n285.0000,3.380000\n286.0000,3.400000\n287.0000,3.420000\n288.0000,3.440000\n289.0000,3.460000\n290.0000,3.480007\n291.0000,3.500000\n292.0000,3.520000\n293.0000,3.530000\n294.0000,3.540000\n295.0000,3.550000\n296.0000,3.540000\n297.0000,3.550000\n298.0000,3.550000\n299.0000,3.540000\n300.0000,3.540004\n301.0000,3.530000\n302.0000,3.530000\n303.0000,3.530000\n304.0000,3.510000\n305.0000,3.500000\n306.0000,3.490000\n307.0000,3.470000\n308.0000,3.450000\n309.0000,3.440000\n310.0000,3.420005\n311.0000,3.400000\n312.0000,3.370000\n313.0000,3.330000\n314.0000,3.310000\n315.0000,3.290000\n316.0000,3.240000\n317.0000,3.200000\n318.0000,3.150000\n319.0000,3.120000\n##END=\n'