b'##TITLE=2-Aminopyridine\n##JCAMP-DX=4.24\n##DATA TYPE=UV/VIS SPECTRUM\n##ORIGIN=INSTITUTE OF ENERGY PROBLEMS OF CHEMICAL PHYSICS, RAS\n##OWNER=INEP CP RAS, NIST OSRD\nCollection (C) 2007 copyright by the U.S. Secretary of Commerce\non behalf of the United States of America. All rights reserved.\n##CAS REGISTRY NO=504-29-0\n##MOLFORM=C5H6N2\n##MP=57.5\n##BP=105(20)\n##SOURCE REFERENCE=RAS UV No. 43\n##$NIST SQUIB=1948STE/EWI3397-3406\n##$NIST SOURCE=TSGMTE\n##SPECTROMETER/DATA SYSTEM=n.i.g.\n##XUNITS=Wavelength (nm)\n##YUNITS=Logarithm epsilon\n##XFACTOR=1.000000\n##YFACTOR=1.000000\n##FIRSTX=223.7792\n##LASTX=338.4906\n##FIRSTY=3.88977\n##MAXX=338.491\n##MINX=223.779\n##MAXY=3.94006\n##MINY=2.17014\n##NPOINTS=408\n##$REF AUTHOR=Steck, E.A.; Ewing, G.W.\n##$REF TITLE=Absorption spectra of heterocyclic compounds. II. Amino-derivatives of pyridine, quinoline and isoquinoline\n##$REF JOURNAL=J. Am. Chem. Soc.\n##$REF VOLUME=70\n##$REF PAGE=3397-3406\n##$REF DATE=1948\n##XYPOINTS=(XY..XY)\n223.7792,3.889771\n223.8240,3.894340\n223.8776,3.898976\n223.9490,3.903746\n223.9490,3.903746\n224.3176,3.904427\n224.7041,3.905241\n225.0993,3.906123\n225.0993,3.906123\n225.2642,3.912285\n225.4380,3.918581\n225.6295,3.924944\n225.6295,3.924944\n226.0976,3.928885\n226.3983,3.932495\n226.7893,3.938871\n226.7893,3.938871\n226.9992,3.939177\n227.2269,3.939548\n227.4635,3.940055\n230.7441,3.932298\n231.1164,3.926663\n231.5342,3.922781\n232.3555,3.917326\n232.3555,3.917326\n232.4640,3.906378\n232.5636,3.895430\n232.6456,3.884482\n233.9692,3.856453\n234.3175,3.842847\n234.6094,3.835662\n235.0925,3.811185\n235.0951,3.828737\n235.0951,3.828737\n235.1659,3.800385\n235.3780,3.787079\n235.3780,3.787079\n235.6024,3.785255\n235.6639,3.749068\n235.7546,3.759601\n235.8092,3.783500\n235.9147,3.768915\n236.0074,3.781881\n236.0074,3.781881\n236.1529,3.717430\n236.2654,3.711436\n236.3692,3.705576\n236.4554,3.699785\n236.9677,3.664353\n236.9710,3.668293\n237.0917,3.654462\n237.1041,3.669660\n237.3818,3.621619\n237.4935,3.614712\n237.5965,3.607941\n237.6820,3.601238\n238.0158,3.573560\n238.1263,3.565054\n238.2279,3.556617\n238.3121,3.548315\n238.6064,3.520639\n238.7196,3.513732\n238.8329,3.506961\n238.9214,3.469860\n238.9462,3.500256\n239.0339,3.463865\n239.1377,3.458006\n239.2239,3.452215\n239.5120,3.416939\n239.6231,3.409335\n239.7255,3.401730\n239.8102,3.394127\n240.1275,3.346083\n240.1330,3.352782\n240.1385,3.359548\n240.1441,3.366449\n240.3993,3.290746\n240.4053,3.298131\n240.4114,3.305652\n240.4176,3.313240\n240.6893,3.257903\n240.8020,3.250298\n240.9146,3.242693\n240.9985,3.199828\n241.0272,3.235088\n241.1102,3.192921\n241.2132,3.186150\n241.2987,3.179447\n241.5910,3.149339\n241.6533,3.142953\n241.6979,3.136567\n241.7338,3.130182\n241.9060,3.098560\n242.0179,3.091867\n242.1210,3.085175\n242.2065,3.078483\n242.4802,3.025578\n242.4863,3.032963\n242.4924,3.040483\n242.4986,3.048071\n242.8015,2.982398\n242.8063,2.988263\n242.8112,2.994263\n242.8161,3.000332\n243.3858,2.921878\n243.3913,2.928576\n243.3968,2.935342\n243.4024,2.942244\n243.8941,2.881368\n243.8978,2.885939\n244.0180,2.871387\n244.0323,2.889017\n244.3038,2.833376\n244.4157,2.826684\n244.5188,2.819991\n244.5857,2.790502\n244.6043,2.813300\n244.6473,2.783294\n244.6914,2.776221\n244.7268,2.769217\n244.8600,2.689568\n244.8867,2.722397\n244.8921,2.729084\n244.8976,2.735771\n244.9030,2.742458\n244.9243,2.685704\n244.9711,2.681975\n245.0092,2.678314\n245.0966,2.591068\n245.1253,2.626328\n245.1307,2.633027\n245.1362,2.639793\n245.1419,2.646694\n245.2090,2.585073\n245.3128,2.579214\n245.3579,2.522965\n245.3634,2.529652\n245.3688,2.536339\n245.3743,2.543026\n245.3990,2.573423\n246.3294,2.500120\n246.4460,2.497468\n246.5628,2.494952\n246.6796,2.492504\n246.6796,2.492504\n246.9549,2.491972\n247.2215,2.491577\n247.4706,2.491250\n247.9864,2.492441\n248.4225,2.493118\n248.8588,2.493930\n249.2951,2.494810\n250.7799,2.518753\n251.0629,2.525821\n251.3459,2.533024\n251.6291,2.540295\n252.4884,2.574299\n252.6512,2.579763\n252.8141,2.585226\n252.9770,2.590690\n253.9917,2.621039\n254.1165,2.628419\n254.2414,2.635933\n254.3664,2.643516\n254.8530,2.657475\n254.8585,2.664174\n254.8640,2.670940\n254.8696,2.677841\n254.8696,2.677841\n255.3288,2.685204\n255.5484,2.690080\n255.7165,2.696647\n256.7323,2.728212\n256.9368,2.734372\n257.1501,2.740666\n257.3812,2.747027\n258.0831,2.782255\n258.1788,2.788037\n258.2921,2.793886\n258.4143,2.799870\n259.4310,2.832651\n259.5281,2.840246\n259.6429,2.847839\n259.7664,2.855433\n260.4621,2.883062\n260.6780,2.890651\n260.9115,2.898239\n261.1539,2.905827\n262.1748,2.943775\n262.2725,2.952068\n262.3879,2.960495\n262.5121,2.968989\n263.3319,3.002995\n263.3869,3.007563\n263.4596,3.012198\n263.5412,3.016968\n264.3610,3.050974\n264.5258,3.057136\n264.6996,3.063432\n264.8911,3.069795\n265.3901,3.098953\n265.5556,3.105948\n265.7300,3.113010\n265.9222,3.120206\n266.6140,3.142971\n266.7103,3.149654\n266.8243,3.156336\n266.9471,3.163018\n267.9618,3.193367\n268.0575,3.199149\n268.1708,3.204998\n268.2930,3.210982\n269.3097,3.243763\n269.4047,3.248712\n269.5174,3.253795\n269.6389,3.258946\n270.4982,3.292950\n270.7804,3.299106\n271.0628,3.305397\n271.3452,3.311756\n272.0055,3.344554\n272.1278,3.348804\n272.2500,3.353053\n272.3723,3.357303\n272.3866,3.374933\n272.3886,3.377376\n272.3907,3.379887\n272.3928,3.382532\n273.7058,3.390069\n274.0882,3.418343\n274.3982,3.433381\n274.9015,3.448071\n274.9015,3.448071\n275.1807,3.450501\n275.4599,3.452998\n275.7393,3.455630\n275.7393,3.455630\n275.9041,3.463537\n276.0690,3.471511\n276.2340,3.479621\n276.2340,3.479621\n277.0802,3.497526\n277.9265,3.515499\n278.7729,3.533607\n280.0963,3.553910\n280.4207,3.561494\n280.7540,3.569078\n281.1048,3.576660\n282.4423,3.614289\n282.5367,3.618540\n282.6487,3.622791\n282.7695,3.627041\n282.7695,3.627041\n282.9805,3.628562\n283.2091,3.630149\n283.4467,3.631872\n285.0970,3.664622\n285.5408,3.672898\n285.9935,3.681309\n286.4639,3.689787\n288.4261,3.716443\n288.8676,3.721893\n289.3179,3.727343\n289.7859,3.732792\n293.5724,3.762704\n294.1706,3.766019\n294.7775,3.769334\n295.4021,3.772648\n298.3825,3.785272\n299.1628,3.785234\n299.9255,3.785198\n300.6793,3.785162\n300.6793,3.785162\n300.9037,3.783338\n301.1106,3.781583\n301.3087,3.779964\n303.9498,3.764942\n304.4490,3.760145\n304.9307,3.755483\n305.4036,3.750889\n308.1937,3.724310\n308.5342,3.719137\n308.8571,3.714032\n309.1713,3.709064\n310.7744,3.683757\n311.0063,3.678589\n311.2295,3.673490\n311.4352,3.668526\n313.0301,3.633188\n313.1447,3.628026\n313.2593,3.622932\n313.3741,3.617973\n314.6561,3.587514\n314.8101,3.582035\n314.9640,3.576556\n315.1180,3.571077\n316.2387,3.536977\n316.4709,3.532193\n316.6945,3.527543\n316.9005,3.522963\n317.8628,3.488871\n317.9759,3.483709\n318.0803,3.478615\n318.1672,3.473657\n319.1304,3.440782\n319.3617,3.434781\n319.5843,3.428916\n319.7893,3.423119\n320.7526,3.390244\n320.8644,3.383551\n320.9675,3.376858\n321.0530,3.370167\n321.6995,3.337306\n321.9205,3.331306\n322.1240,3.325442\n322.3187,3.319646\n322.9692,3.291648\n323.0803,3.284055\n323.1827,3.276529\n323.2677,3.269140\n323.9203,3.243878\n324.0320,3.236971\n324.1351,3.230200\n324.2205,3.223497\n324.8650,3.188205\n324.9775,3.182210\n325.0812,3.176351\n325.1675,3.170560\n325.8159,3.140131\n325.8789,3.134656\n325.9243,3.129183\n325.9609,3.123709\n326.7606,3.084458\n326.8728,3.078080\n326.9762,3.071770\n327.0621,3.065597\n327.3531,3.033969\n327.4650,3.027276\n327.5681,3.020584\n327.6536,3.013892\n327.9872,2.985910\n328.0997,2.979915\n328.2035,2.974056\n328.2897,2.968265\n328.5758,2.930558\n328.5791,2.934600\n328.5825,2.938776\n328.5859,2.943021\n329.2057,2.877332\n329.2104,2.883118\n329.2151,2.888972\n329.2200,2.894962\n329.5019,2.852087\n329.6145,2.844483\n329.7271,2.836878\n329.8398,2.829273\n330.1321,2.799165\n330.2417,2.789748\n330.3427,2.780398\n330.4261,2.771185\n330.7434,2.723141\n330.7488,2.729840\n330.7543,2.736606\n330.7600,2.743507\n331.0357,2.693033\n331.1468,2.685429\n331.2492,2.677824\n331.3339,2.670221\n331.6138,2.624915\n331.6185,2.630701\n331.6233,2.636555\n331.6282,2.642545\n331.9289,2.574135\n331.9337,2.580001\n331.9386,2.586001\n331.9435,2.592069\n332.5214,2.523647\n332.5254,2.528600\n332.5296,2.533689\n332.5338,2.538845\n332.8491,2.488369\n332.9622,2.483208\n333.0666,2.478114\n333.1535,2.473156\n333.7856,2.422665\n333.7904,2.428452\n333.7951,2.434306\n333.8000,2.440295\n334.3782,2.372177\n334.3829,2.377963\n334.3876,2.383817\n334.3925,2.389807\n335.0266,2.341748\n335.1385,2.335055\n335.2416,2.328362\n335.3271,2.321671\n335.9735,2.288810\n336.0860,2.282815\n336.1898,2.276956\n336.2760,2.271165\n336.9244,2.240736\n337.1459,2.235254\n337.3497,2.229773\n337.5447,2.224292\n337.8733,2.190231\n338.0938,2.183532\n338.2966,2.176835\n338.4906,2.170138\n##END=\n'