b'##TITLE=1,3-Dithiane\n##JCAMP-DX=4.24\n##DATA TYPE=UV/VIS SPECTRUM\n##ORIGIN=INSTITUTE OF ENERGY PROBLEMS OF CHEMICAL PHYSICS, RAS\n##OWNER=INEP CP RAS, NIST OSRD\nCollection (C) 2007 copyright by the U.S. Secretary of Commerce\non behalf of the United States of America. All rights reserved.\n##CAS REGISTRY NO=505-23-7\n##MOLFORM=C4H8S2\n##MP=54\n##BP=89(14)\n##SOURCE REFERENCE=RAS UV No. 23\n##$NIST SQUIB=1962BER/CLA1159-1174\n##$NIST SOURCE=TSGMTE\n##SPECTROMETER/DATA SYSTEM=n.i.g.\n##XUNITS=Wavelength (nm)\n##YUNITS=Logarithm epsilon\n##XFACTOR=1.000000\n##YFACTOR=1.000000\n##FIRSTX=204.5476\n##LASTX=280.5165\n##FIRSTY=3.11157\n##MAXX=280.517\n##MINX=204.548\n##MAXY=3.11483\n##MINY=0.181043\n##NPOINTS=114\n##$REF AUTHOR=Bergson, G.; Claeson, G.; Schotte, L.\n##$REF TITLE=Ultraviolet absorption spectra of saturated disulphides and diselenides\n##$REF JOURNAL=Acta Chem. Scand.\n##$REF VOLUME=16\n##$REF PAGE=1159-1174\n##$REF DATE=1962\n##XYPOINTS=(XY..XY)\n204.5476,3.111570\n206.4516,3.114834\n210.2195,3.101302\n211.3038,3.088097\n212.1300,3.071663\n213.4061,3.037917\n213.7314,2.988246\n213.9663,2.959773\n214.1828,2.946922\n214.5665,2.938678\n215.3553,2.883956\n215.5593,2.866825\n215.7636,2.849568\n215.9683,2.832057\n216.9973,2.770523\n217.1922,2.757985\n217.3871,2.745447\n217.5821,2.732910\n218.6212,2.666233\n218.9023,2.638827\n219.1836,2.611295\n219.4655,2.583509\n221.8113,2.486797\n222.5077,2.465891\n223.6471,2.450283\n225.6642,2.430406\n229.7007,2.424360\n231.8959,2.429990\n233.0479,2.434521\n234.1440,2.441835\n237.5628,2.489974\n239.5611,2.510281\n240.5870,2.519084\n241.5200,2.523930\n246.6296,2.548400\n249.3460,2.543231\n251.3033,2.533336\n253.7870,2.512113\n253.7870,2.512113\n253.7930,2.509086\n253.7995,2.505806\n253.8062,2.502398\n256.2234,2.455436\n256.5642,2.434924\n256.9303,2.414418\n257.3090,2.393914\n258.3663,2.346678\n258.5304,2.329539\n258.7200,2.312279\n258.9227,2.294767\n259.9233,2.247519\n260.0150,2.230959\n260.1192,2.214401\n260.2486,2.197848\n260.6407,2.143046\n260.9635,2.124225\n261.2992,2.105279\n261.6606,2.086084\n262.2929,2.024470\n262.3846,2.007910\n262.4888,1.991352\n262.6182,1.974799\n262.9627,1.915414\n263.3127,1.890310\n263.6881,1.865083\n264.0767,1.839605\n264.1889,1.783031\n264.7877,1.740446\n265.2563,1.719049\n265.8785,1.645597\n265.9701,1.629037\n265.9963,1.700502\n266.0743,1.612479\n266.2037,1.595927\n266.5573,1.531969\n266.8960,1.505147\n267.2476,1.478201\n267.6248,1.451006\n268.2572,1.389393\n268.4281,1.368846\n268.6242,1.348305\n268.8329,1.327767\n269.3983,1.271284\n269.7498,1.245461\n270.1269,1.219388\n270.5168,1.193189\n271.1073,1.124136\n271.3331,1.095999\n271.5595,1.067610\n271.7861,1.039093\n272.3720,0.972323\n272.7231,0.946649\n273.0997,0.920848\n273.4893,0.894798\n274.0707,0.830319\n274.2566,0.802171\n274.4683,0.773779\n274.6928,0.745262\n275.2878,0.673924\n275.5012,0.652072\n275.7151,0.629970\n275.9292,0.607734\n276.9491,0.550779\n277.1815,0.519355\n277.4141,0.487817\n277.6472,0.456017\n278.2229,0.394399\n278.5039,0.366983\n278.7853,0.339451\n279.0671,0.311669\n279.9408,0.242666\n280.1117,0.222118\n280.3078,0.201588\n280.5165,0.181043\n##END=\n'