b'##TITLE=1,4-Dithiane\n##JCAMP-DX=4.24\n##DATA TYPE=UV/VIS SPECTRUM\n##ORIGIN=INSTITUTE OF ENERGY PROBLEMS OF CHEMICAL PHYSICS, RAS\n##OWNER=INEP CP RAS, NIST OSRD\nCollection (C) 2007 copyright by the U.S. Secretary of Commerce\non behalf of the United States of America. All rights reserved.\n##CAS REGISTRY NO=505-29-3\n##MOLFORM=C4H8S2\n##MP=112.3\n##BP=199.5\n##SOURCE REFERENCE=RAS UV No. 6378\n##$NIST SQUIB=1969BAR/HIT407-415\n##$NIST SOURCE=TSGMTE\n##SPECTROMETER/DATA SYSTEM=n.i.g.\n##XUNITS=Wavelength (nm)\n##YUNITS=Logarithm epsilon\n##XFACTOR=1.000000\n##YFACTOR=1.000000\n##FIRSTX=184.8595\n##LASTX=246.0265\n##FIRSTY=3.50251\n##MAXX=246.027\n##MINX=184.86\n##MAXY=3.82376\n##MINY=2.20523\n##NPOINTS=198\n##$REF AUTHOR=Barrett, J.; Hitch, M.J.\n##$REF TITLE=The electronic spectra of some mercaptals\n##$REF JOURNAL=Spectrochim. Acta, Part A\n##$REF VOLUME=25\n##$REF PAGE=407-415\n##$REF DATE=1969\n##XYPOINTS=(XY..XY)\n184.8595,3.502505\n185.5847,3.508219\n186.1852,3.515086\n186.6758,3.522759\n187.0713,3.530905\n187.3864,3.539214\n187.6359,3.547396\n187.8345,3.555185\n187.9970,3.562330\n188.1382,3.568597\n188.2728,3.573761\n188.2728,3.573761\n188.3562,3.580388\n188.5298,3.593337\n188.6199,3.599664\n188.7122,3.605898\n188.9031,3.618094\n189.0016,3.624062\n189.1020,3.629946\n189.2043,3.635748\n189.3085,3.641471\n189.4144,3.647116\n189.5221,3.652687\n189.6316,3.658184\n189.7426,3.663610\n189.8553,3.668967\n189.9695,3.674256\n190.0853,3.679478\n190.2024,3.684636\n190.3210,3.689731\n190.4409,3.694764\n190.5621,3.699737\n190.6845,3.704652\n190.8082,3.709510\n190.9330,3.714311\n191.0589,3.719057\n191.1858,3.723750\n191.3137,3.728391\n191.4427,3.732980\n191.5724,3.737520\n191.7030,3.742010\n191.8344,3.746452\n191.9666,3.750847\n192.0994,3.755196\n192.2329,3.759500\n192.3669,3.763759\n192.5015,3.767976\n192.6366,3.772150\n192.7722,3.776282\n192.9080,3.780373\n193.0443,3.784424\n193.1808,3.788436\n193.3177,3.792410\n193.4546,3.796345\n193.5917,3.800244\n193.7289,3.804106\n193.8661,3.807932\n194.0033,3.811723\n194.1405,3.815480\n194.1405,3.815480\n194.6677,3.820134\n195.3280,3.822530\n196.7843,3.823758\n196.7843,3.823758\n197.1536,3.821189\n197.4876,3.818209\n197.7882,3.814852\n198.0573,3.811152\n198.2968,3.807142\n198.5088,3.802858\n198.6951,3.798335\n198.8576,3.793611\n198.9984,3.788724\n199.1193,3.783714\n199.2223,3.778624\n199.3092,3.773498\n199.3822,3.768382\n199.4431,3.763324\n199.4937,3.758375\n199.5361,3.753588\n199.5723,3.749018\n199.6040,3.744722\n199.6333,3.740759\n199.6622,3.737188\n199.6925,3.734071\n199.7262,3.731467\n199.7262,3.731467\n199.8210,3.726947\n199.9140,3.722373\n200.0054,3.717743\n200.0952,3.713058\n200.1835,3.708315\n200.2705,3.703513\n200.3562,3.698653\n200.4408,3.693731\n200.5244,3.688746\n200.6070,3.683699\n200.6888,3.678587\n200.7700,3.673408\n200.8504,3.668162\n200.9304,3.662847\n201.0100,3.657461\n201.0893,3.652003\n201.1683,3.646471\n201.2474,3.640863\n201.3264,3.635178\n201.4056,3.629413\n201.4850,3.623566\n201.5647,3.617637\n201.6450,3.611622\n201.7257,3.605519\n201.8070,3.599326\n201.8892,3.593040\n201.9723,3.586660\n202.0563,3.580182\n202.1414,3.573603\n202.2277,3.566922\n202.3152,3.560134\n202.4042,3.553237\n202.4947,3.546228\n202.5868,3.539102\n202.6806,3.531857\n202.7762,3.524489\n202.8737,3.516993\n202.9733,3.509366\n203.0751,3.501603\n203.1790,3.493699\n203.2853,3.485650\n203.3941,3.477451\n203.5055,3.469095\n203.6195,3.460578\n203.7363,3.451893\n203.8559,3.443034\n203.9786,3.433994\n204.1043,3.424765\n204.2333,3.415341\n204.3655,3.405712\n204.5012,3.395870\n204.6403,3.385806\n204.7831,3.375509\n204.9296,3.364969\n205.0800,3.354175\n205.2343,3.343113\n205.3926,3.331772\n205.5551,3.320136\n205.7219,3.308190\n205.8929,3.295917\n206.0685,3.283299\n206.2486,3.270316\n206.4335,3.256947\n206.6230,3.243169\n206.8175,3.228954\n206.8175,3.228954\n207.0840,3.219329\n207.3674,3.208429\n207.6679,3.196266\n207.9857,3.182846\n208.3212,3.168172\n208.6747,3.152240\n209.0465,3.135046\n209.4368,3.116586\n209.8459,3.096853\n210.2741,3.075840\n210.7218,3.053545\n211.1892,3.029969\n211.6766,3.005123\n212.1842,2.979027\n212.7124,2.951722\n213.2614,2.923269\n213.8317,2.893760\n214.4233,2.863332\n215.0366,2.832177\n215.6720,2.800555\n216.3297,2.768820\n217.0100,2.737427\n217.7131,2.706967\n218.4394,2.678163\n219.1891,2.651884\n219.9626,2.629115\n219.9626,2.629115\n221.2905,2.630399\n222.5769,2.630785\n223.8269,2.630139\n225.0450,2.628320\n226.2361,2.625172\n227.4050,2.620528\n228.5565,2.614200\n229.6952,2.605965\n230.8260,2.595567\n231.9537,2.582701\n233.0830,2.566985\n234.2188,2.547953\n235.3658,2.525001\n236.5286,2.497333\n237.7123,2.463877\n242.7160,2.300737\n244.4654,2.259556\n246.0265,2.205226\n##END=\n'