b'##TITLE=Tert-butyl hypochlorite\n##JCAMP-DX=4.24\n##DATA TYPE=UV/VIS SPECTRUM\n##ORIGIN=INSTITUTE OF ENERGY PROBLEMS OF CHEMICAL PHYSICS, RAS\n##OWNER=INEP CP RAS, NIST OSRD\nCollection (C) 2007 copyright by the U.S. Secretary of Commerce\non behalf of the United States of America. All rights reserved.\n##CAS REGISTRY NO=507-40-4\n##MOLFORM=C4H9ClO\n##BP=77.5\n##SOURCE REFERENCE=RAS UV No. 12067\n##$NIST SQUIB=1954ANB/DOS1105\n##$NIST SOURCE=TYUGLMTE\n##SPECTROMETER/DATA SYSTEM=Beckman DU\n##XUNITS=Wavelength (nm)\n##YUNITS=Logarithm epsilon\n##XFACTOR=1.0\n##YFACTOR=1.0\n##FIRSTX=226.72\n##LASTX=342.3\n##FIRSTY=1.056\n##MAXX=342.3\n##MINX=226.72\n##MAXY=2.015\n##MINY=0.76\n##NPOINTS=226\n##$REF AUTHOR=Anbar, M.; Dostrovsky, I.\n##$REF JOURNAL=J. Chem. Soc.\n##$REF PAGE=1105\n##$REF DATE=1954\n##XYPOINTS=(XY..XY)\n226.72,1.056\n227.23,1.158\n227.75,1.272\n228.26,1.377\n228.78,1.463\n229.29,1.535\n229.80,1.596\n230.32,1.651\n230.83,1.692\n231.34,1.719\n231.86,1.753\n232.37,1.782\n232.88,1.817\n233.40,1.850\n233.91,1.871\n234.43,1.897\n234.94,1.917\n235.45,1.937\n235.97,1.950\n236.48,1.962\n236.99,1.974\n237.51,1.986\n238.02,1.994\n238.54,2.004\n239.05,2.009\n239.56,2.014\n240.08,2.015\n240.59,2.015\n241.10,2.014\n241.62,2.012\n242.13,2.006\n242.64,2.003\n243.16,1.999\n243.67,1.995\n244.19,1.990\n244.70,1.983\n245.21,1.977\n245.73,1.970\n246.24,1.965\n246.75,1.956\n247.27,1.950\n247.78,1.943\n248.29,1.934\n248.81,1.929\n249.32,1.921\n249.84,1.914\n250.36,1.906\n250.86,1.899\n251.38,1.892\n251.90,1.883\n252.41,1.871\n252.87,1.860\n253.49,1.845\n254.00,1.830\n254.52,1.816\n254.97,1.802\n255.49,1.789\n256.00,1.772\n256.51,1.760\n257.03,1.747\n257.54,1.736\n258.01,1.725\n258.57,1.710\n259.08,1.693\n259.60,1.678\n260.11,1.667\n260.62,1.648\n261.14,1.636\n261.65,1.623\n262.16,1.611\n262.69,1.596\n263.19,1.582\n263.77,1.570\n264.22,1.559\n264.73,1.546\n265.25,1.526\n265.76,1.516\n266.27,1.502\n266.79,1.484\n267.30,1.473\n267.81,1.455\n268.33,1.441\n268.84,1.428\n269.35,1.413\n269.87,1.398\n270.38,1.384\n271.01,1.367\n271.52,1.350\n272.04,1.337\n272.44,1.326\n272.95,1.312\n273.46,1.301\n273.98,1.287\n274.35,1.275\n274.86,1.264\n275.52,1.250\n276.03,1.237\n276.51,1.229\n277.06,1.220\n277.57,1.217\n278.09,1.206\n278.60,1.199\n279.11,1.192\n279.63,1.188\n280.14,1.181\n280.66,1.173\n281.17,1.170\n281.68,1.166\n282.20,1.162\n282.71,1.154\n283.22,1.150\n283.75,1.146\n284.16,1.142\n284.73,1.138\n285.28,1.134\n285.81,1.130\n286.31,1.129\n286.83,1.128\n287.35,1.127\n287.81,1.126\n288.36,1.125\n288.87,1.125\n289.39,1.125\n289.90,1.125\n290.42,1.125\n290.93,1.125\n291.44,1.125\n291.96,1.125\n292.47,1.125\n292.98,1.125\n293.50,1.125\n294.01,1.125\n294.52,1.125\n295.04,1.125\n295.57,1.124\n296.13,1.124\n296.58,1.125\n297.09,1.125\n297.61,1.125\n298.13,1.125\n298.66,1.128\n299.12,1.131\n299.63,1.136\n300.17,1.138\n300.69,1.138\n301.20,1.138\n301.72,1.138\n302.23,1.138\n302.74,1.138\n303.26,1.138\n303.77,1.139\n304.28,1.142\n304.81,1.141\n305.35,1.139\n305.86,1.136\n306.34,1.134\n306.83,1.132\n307.37,1.129\n307.88,1.128\n308.39,1.125\n308.85,1.122\n309.43,1.119\n309.93,1.116\n310.48,1.115\n310.97,1.114\n311.48,1.112\n311.99,1.112\n312.52,1.111\n313.03,1.110\n313.53,1.108\n314.04,1.103\n314.56,1.099\n315.07,1.094\n315.53,1.091\n315.94,1.087\n316.49,1.083\n317.07,1.079\n317.64,1.076\n318.08,1.073\n318.61,1.069\n319.18,1.066\n319.69,1.061\n320.32,1.055\n320.81,1.051\n321.23,1.046\n321.71,1.042\n322.26,1.036\n322.78,1.030\n323.29,1.025\n323.80,1.020\n324.34,1.014\n324.83,1.009\n325.34,1.003\n325.90,0.996\n326.37,0.992\n326.89,0.986\n327.40,0.980\n327.89,0.973\n328.51,0.966\n328.94,0.962\n329.45,0.955\n329.97,0.949\n330.48,0.943\n331.01,0.936\n331.51,0.929\n332.02,0.923\n332.54,0.916\n333.15,0.909\n333.75,0.900\n334.08,0.895\n334.59,0.887\n335.10,0.880\n335.82,0.868\n336.34,0.858\n336.75,0.849\n337.16,0.841\n337.71,0.830\n338.26,0.821\n338.70,0.815\n339.21,0.807\n339.73,0.798\n340.24,0.789\n340.75,0.779\n341.27,0.770\n341.72,0.765\n342.30,0.760\n##END=\n'