b'##TITLE=Propane, 2-bromo-2-methyl-\n##JCAMP-DX=4.24\n##DATA TYPE=UV/VIS SPECTRUM\n##ORIGIN=INSTITUTE OF ENERGY PROBLEMS OF CHEMICAL PHYSICS, RAS\n##OWNER=INEP CP RAS, NIST OSRD\nCollection (C) 2007 copyright by the U.S. Secretary of Commerce\non behalf of the United States of America. All rights reserved.\n##CAS REGISTRY NO=507-19-7\n##MOLFORM=C4H9Br\n##BP=73\n##SOURCE REFERENCE=RAS UV No. 19864\n##$NIST SQUIB=1971SCH/BRAi/3\n##$NIST SOURCE=TYUGLMTE\n##SPECTROMETER/DATA SYSTEM=Zeiss PMQ II\n##XUNITS=Wavelength (nm)\n##YUNITS=Logarithm epsilon\n##XFACTOR=1.0\n##YFACTOR=1.0\n##FIRSTX=182.53\n##LASTX=254.64\n##FIRSTY=2.336\n##MAXX=254.64\n##MINX=182.53\n##MAXY=2.336\n##MINY=0.962\n##NPOINTS=144\n##$REF AUTHOR=Schmiele, C.; Braunsweig, T.H.\n##$REF JOURNAL=UV atlas of organic compounds\n##$REF VOLUME=5\n##$REF PAGE=I/3\n##$REF DATE=1971\n##XYPOINTS=(XY..XY)\n182.53,2.336\n182.89,2.321\n183.25,2.307\n183.61,2.289\n183.83,2.270\n184.04,2.253\n184.26,2.236\n184.48,2.219\n184.70,2.202\n184.92,2.185\n185.14,2.168\n185.36,2.149\n185.58,2.132\n185.81,2.115\n186.03,2.097\n186.33,2.080\n186.55,2.063\n186.77,2.046\n187.07,2.029\n187.37,2.012\n187.60,1.995\n187.98,1.978\n188.36,1.961\n188.74,1.944\n189.05,1.927\n189.51,1.912\n189.97,1.897\n190.52,1.884\n191.14,1.873\n191.77,1.867\n192.48,1.863\n193.20,1.865\n193.84,1.871\n194.49,1.882\n195.14,1.893\n195.80,1.903\n196.38,1.916\n196.96,1.929\n197.54,1.940\n198.13,1.950\n198.72,1.963\n199.32,1.976\n199.91,1.989\n200.52,2.001\n201.12,2.012\n201.64,2.025\n202.26,2.036\n202.87,2.048\n203.49,2.059\n204.12,2.070\n204.75,2.080\n205.38,2.091\n206.01,2.102\n206.65,2.112\n207.30,2.123\n208.04,2.134\n208.69,2.144\n209.44,2.155\n210.19,2.164\n210.96,2.172\n211.82,2.179\n212.59,2.185\n213.37,2.191\n214.25,2.196\n215.14,2.198\n216.04,2.198\n216.95,2.198\n217.86,2.196\n218.68,2.189\n219.60,2.183\n220.44,2.174\n221.27,2.166\n222.12,2.157\n222.97,2.147\n223.82,2.136\n224.69,2.125\n225.56,2.115\n226.32,2.102\n226.98,2.089\n227.65,2.076\n228.43,2.063\n228.99,2.048\n229.67,2.033\n230.24,2.018\n230.92,2.004\n231.50,1.989\n232.07,1.974\n232.53,1.957\n233.12,1.942\n233.58,1.925\n234.05,1.908\n234.52,1.890\n235.12,1.876\n235.59,1.858\n236.07,1.841\n236.55,1.824\n237.03,1.807\n237.51,1.790\n238.00,1.773\n238.49,1.756\n238.85,1.739\n239.34,1.722\n239.71,1.705\n240.21,1.688\n240.58,1.671\n241.08,1.654\n241.45,1.637\n241.83,1.619\n242.33,1.602\n242.71,1.585\n243.09,1.568\n243.47,1.551\n243.85,1.534\n244.23,1.517\n244.62,1.498\n245.01,1.479\n245.39,1.462\n245.65,1.442\n246.04,1.425\n246.43,1.408\n246.82,1.391\n247.21,1.372\n247.61,1.355\n248.00,1.336\n248.40,1.317\n248.80,1.297\n249.20,1.278\n249.60,1.261\n249.87,1.242\n250.13,1.223\n250.54,1.206\n250.94,1.188\n251.21,1.169\n251.62,1.152\n251.89,1.133\n252.30,1.116\n252.57,1.097\n252.99,1.078\n253.12,1.058\n253.40,1.039\n253.67,1.020\n254.09,1.001\n254.37,0.982\n254.64,0.962\n##END=\n'