b'##TITLE=2-Propanone, 1,1-dichloro-\n##JCAMP-DX=4.24\n##DATA TYPE=UV/VIS SPECTRUM\n##ORIGIN=INSTITUTE OF ENERGY PROBLEMS OF CHEMICAL PHYSICS, RAS\n##OWNER=INEP CP RAS, NIST OSRD\nCollection (C) 2007 copyright by the U.S. Secretary of Commerce\non behalf of the United States of America. All rights reserved.\n##CAS REGISTRY NO=513-88-2\n##MOLFORM=C3H4Cl2O\n##BP=59/ 110 mm\n##SOURCE REFERENCE=RAS UV No. 15328\n##$NIST SQUIB=1970SMI/THO296\n##$NIST SOURCE=TYUGLMTE\n##SPECTROMETER/DATA SYSTEM=Bausch and Lomb Spectronic 600\n##XUNITS=Wavelength (nm)\n##YUNITS=Logarithm epsilon\n##XFACTOR=1.0\n##YFACTOR=1.0\n##FIRSTX=219.93\n##LASTX=337.6\n##FIRSTY=1.43\n##MAXX=337.6\n##MINX=219.93\n##MAXY=1.605\n##MINY=0.088\n##NPOINTS=197\n##$REF AUTHOR=Smith, E.D.; Thornsberry, W.L.\n##$REF JOURNAL=J. Chem. Eng. Data.\n##$REF VOLUME=15\n##$REF PAGE=296\n##$REF DATE=1970\n##XYPOINTS=(XY..XY)\n219.93,1.430\n220.09,1.421\n220.40,1.411\n220.56,1.402\n220.72,1.392\n221.04,1.382\n221.19,1.371\n221.35,1.361\n221.67,1.350\n222.14,1.338\n222.30,1.327\n222.46,1.315\n222.78,1.303\n223.09,1.290\n223.41,1.278\n223.72,1.264\n224.20,1.251\n224.52,1.236\n224.83,1.222\n225.15,1.207\n225.46,1.191\n225.78,1.175\n226.26,1.160\n226.57,1.143\n227.05,1.126\n227.52,1.107\n227.99,1.088\n228.31,1.067\n228.79,1.048\n229.26,1.025\n229.58,1.001\n230.05,0.979\n230.68,0.955\n231.16,0.930\n231.47,0.899\n231.95,0.871\n232.58,0.840\n233.21,0.807\n234.01,0.776\n234.80,0.743\n235.74,0.712\n236.69,0.673\n237.80,0.642\n239.07,0.610\n240.49,0.617\n241.76,0.642\n243.02,0.667\n244.13,0.695\n245.39,0.722\n246.50,0.748\n247.61,0.776\n248.56,0.807\n249.51,0.832\n250.45,0.856\n251.40,0.882\n252.35,0.906\n253.30,0.930\n254.09,0.955\n254.72,0.979\n255.52,1.001\n256.31,1.022\n257.10,1.043\n257.89,1.062\n258.52,1.081\n259.15,1.099\n259.94,1.116\n260.58,1.133\n261.05,1.150\n261.68,1.166\n262.32,1.180\n262.79,1.195\n263.42,1.208\n264.06,1.222\n264.53,1.235\n265.16,1.251\n265.64,1.264\n266.11,1.278\n266.74,1.289\n267.22,1.302\n267.69,1.312\n268.17,1.324\n268.64,1.336\n269.12,1.347\n269.43,1.358\n269.91,1.368\n270.38,1.378\n270.86,1.388\n271.33,1.397\n271.81,1.406\n272.28,1.416\n272.60,1.425\n273.07,1.434\n273.55,1.443\n274.02,1.451\n274.49,1.460\n274.97,1.468\n275.44,1.477\n275.92,1.485\n276.23,1.493\n276.71,1.500\n277.18,1.508\n277.82,1.514\n278.45,1.521\n278.92,1.528\n279.71,1.534\n280.51,1.540\n280.98,1.548\n281.77,1.553\n282.56,1.558\n283.51,1.564\n284.30,1.570\n285.25,1.575\n286.20,1.580\n287.15,1.584\n288.26,1.588\n289.20,1.593\n290.15,1.597\n291.26,1.601\n292.37,1.604\n293.79,1.605\n295.21,1.604\n296.01,1.599\n296.80,1.594\n297.59,1.589\n298.38,1.584\n299.17,1.578\n299.96,1.573\n300.75,1.567\n301.38,1.561\n302.02,1.555\n302.81,1.549\n303.44,1.543\n304.07,1.536\n304.70,1.530\n305.18,1.524\n305.81,1.517\n306.44,1.510\n306.92,1.503\n307.55,1.496\n308.03,1.489\n308.66,1.482\n309.13,1.475\n309.61,1.467\n310.08,1.460\n310.56,1.452\n311.03,1.444\n311.51,1.435\n311.82,1.426\n312.45,1.418\n312.93,1.409\n313.24,1.399\n313.72,1.389\n314.04,1.379\n314.51,1.370\n314.83,1.359\n315.30,1.348\n315.78,1.338\n316.09,1.327\n316.41,1.315\n316.88,1.304\n317.36,1.293\n317.67,1.280\n317.99,1.267\n318.46,1.255\n318.78,1.241\n319.26,1.228\n319.57,1.214\n319.89,1.198\n320.20,1.182\n320.68,1.168\n321.15,1.150\n321.63,1.135\n321.94,1.116\n322.58,1.099\n323.05,1.081\n323.53,1.062\n324.00,1.043\n324.63,1.022\n325.11,1.001\n325.74,0.979\n326.37,0.955\n326.85,0.930\n327.32,0.899\n327.95,0.871\n328.59,0.840\n329.06,0.807\n329.69,0.771\n330.48,0.738\n331.12,0.695\n331.75,0.649\n332.54,0.596\n333.33,0.537\n334.12,0.477\n334.91,0.396\n335.70,0.311\n336.65,0.205\n337.60,0.088\n##END=\n'