b"##TITLE=2-Methyl-1-propanethiol\n##JCAMP-DX=4.24\n##DATA TYPE=UV/VIS SPECTRUM\n##ORIGIN=INSTITUTE OF ENERGY PROBLEMS OF CHEMICAL PHYSICS, RAS\n##OWNER=INEP CP RAS, NIST OSRD\nCollection (C) 2007 copyright by the U.S. Secretary of Commerce\non behalf of the United States of America. All rights reserved.\n##CAS REGISTRY NO=513-44-0\n##MOLFORM=C4H10S\n##SOURCE REFERENCE=RAS UV No. 20093\n##$NIST SQUIB=1969BOL/84\n##$NIST SOURCE=TYUGLMTE\n##SPECTROMETER/DATA SYSTEM=unknown\n##XUNITS=Wavelength (nm)\n##YUNITS=Logarithm epsilon\n##XFACTOR=1.0\n##YFACTOR=1.0\n##FIRSTX=212.56\n##LASTX=281.49\n##FIRSTY=2.248\n##MAXX=281.49\n##MINX=212.56\n##MAXY=2.248\n##MINY=0.585\n##NPOINTS=107\n##$REF AUTHOR=Bol'shakov, G.F.; et al.\n##$REF JOURNAL=Ultraviolet spectra of heteroorganic compounds\n##$REF PAGE=84\n##$REF DATE=1969\n##XYPOINTS=(XY..XY)\n212.56,2.248\n213.75,2.235\n214.94,2.225\n216.30,2.214\n217.83,2.210\n219.35,2.204\n220.88,2.202\n222.41,2.202\n223.94,2.204\n225.47,2.210\n226.99,2.216\n228.52,2.214\n230.05,2.212\n231.58,2.206\n232.94,2.198\n234.13,2.185\n235.31,2.174\n236.33,2.162\n237.01,2.145\n237.86,2.128\n238.71,2.114\n239.56,2.097\n240.24,2.080\n240.83,2.068\n241.43,2.046\n242.11,2.030\n242.78,2.013\n243.21,1.997\n243.80,1.982\n244.48,1.960\n244.99,1.943\n245.50,1.927\n246.01,1.908\n246.52,1.889\n247.03,1.872\n247.54,1.855\n247.88,1.836\n248.39,1.820\n248.90,1.801\n249.24,1.782\n249.57,1.768\n249.94,1.750\n250.42,1.727\n250.62,1.712\n250.93,1.689\n251.27,1.670\n251.61,1.652\n251.95,1.633\n252.29,1.614\n252.63,1.595\n252.97,1.576\n253.22,1.557\n253.48,1.538\n253.80,1.519\n253.99,1.500\n254.33,1.481\n254.67,1.462\n255.01,1.444\n255.39,1.427\n255.86,1.406\n256.20,1.387\n256.50,1.373\n256.88,1.351\n257.39,1.332\n257.72,1.313\n258.06,1.294\n258.46,1.275\n258.91,1.259\n259.30,1.243\n259.76,1.223\n260.10,1.204\n260.61,1.187\n261.12,1.168\n261.46,1.150\n261.90,1.136\n262.48,1.114\n262.85,1.097\n263.33,1.078\n263.70,1.064\n264.18,1.042\n264.69,1.026\n265.20,1.009\n265.70,0.992\n266.21,0.973\n266.72,0.956\n267.22,0.938\n267.74,0.921\n268.42,0.904\n269.10,0.887\n269.61,0.868\n270.11,0.852\n270.80,0.832\n271.41,0.819\n272.10,0.800\n272.67,0.784\n273.17,0.767\n273.85,0.751\n274.53,0.734\n275.17,0.716\n275.92,0.699\n276.57,0.683\n277.42,0.667\n278.27,0.650\n279.12,0.633\n279.97,0.618\n280.65,0.601\n281.49,0.585\n##END=\n"