b'##TITLE=DL-Valine\n##JCAMP-DX=4.24\n##DATA TYPE=UV/VIS SPECTRUM\n##ORIGIN=INSTITUTE OF ENERGY PROBLEMS OF CHEMICAL PHYSICS, RAS\n##OWNER=INEP CP RAS, NIST OSRD\nCollection (C) 2007 copyright by the U.S. Secretary of Commerce\non behalf of the United States of America. All rights reserved.\n##CAS REGISTRY NO=516-06-3\n##MOLFORM=C5H11NO2\n##MP=298 dec\n##BP=sub\n##SOURCE REFERENCE=RAS UV No. 11272\n##$NIST SQUIB=1952SAI/WAL285\n##$NIST SOURCE=TYUGLMTE\n##SPECTROMETER/DATA SYSTEM=Beckman DU\n##XUNITS=Wavelength (nm)\n##YUNITS=Logarithm epsilon\n##XFACTOR=1.0\n##YFACTOR=1.0\n##FIRSTX=200.13\n##LASTX=228.95\n##FIRSTY=2.136\n##MAXX=228.95\n##MINX=200.13\n##MAXY=2.136\n##MINY=0.575\n##NPOINTS=47\n##$REF AUTHOR=Saidel, L.J.; Waldman, S.\n##$REF JOURNAL=J. Biol. Chem.\n##$REF VOLUME=197\n##$REF PAGE=285\n##$REF DATE=1952\n##XYPOINTS=(XY..XY)\n200.13,2.136\n200.26,2.135\n200.39,2.135\n200.66,2.122\n201.18,2.104\n201.70,2.085\n202.23,2.065\n202.75,2.045\n203.28,2.023\n203.80,2.006\n204.32,1.983\n204.85,1.963\n205.37,1.939\n205.90,1.919\n206.42,1.900\n206.94,1.879\n207.47,1.847\n207.99,1.818\n208.52,1.785\n209.04,1.763\n209.56,1.745\n210.09,1.714\n210.61,1.691\n211.14,1.662\n212.18,1.608\n212.71,1.562\n213.23,1.522\n213.76,1.482\n214.28,1.466\n215.33,1.411\n215.85,1.383\n216.90,1.337\n217.42,1.304\n217.95,1.286\n218.47,1.255\n219.00,1.228\n219.52,1.207\n220.04,1.169\n221.09,1.110\n222.14,1.062\n223.19,1.020\n223.71,0.997\n224.24,0.960\n224.76,0.906\n225.81,0.827\n226.86,0.771\n228.95,0.575\n##END=\n'