b'##TITLE=Tetrafluoro-1,4-benzoquinone\n##JCAMP-DX=4.24\n##DATA TYPE=UV/VIS SPECTRUM\n##ORIGIN=INSTITUTE OF ENERGY PROBLEMS OF CHEMICAL PHYSICS, RAS\n##OWNER=INEP CP RAS, NIST OSRD\nCollection (C) 2007 copyright by the U.S. Secretary of Commerce\non behalf of the United States of America. All rights reserved.\n##CAS REGISTRY NO=527-21-9\n##MOLFORM=C6F4O2\n##MP=183-186\n##BP=sub\n##SOURCE REFERENCE=RAS UV No. 59\n##$NIST SQUIB=1964JAK/SHT701-702\n##$NIST SOURCE=TSGMTE\n##SPECTROMETER/DATA SYSTEM=Spectrophotometer SF-16\n##XUNITS=Wavelength (nm)\n##YUNITS=Logarithm epsilon\n##XFACTOR=1.000000\n##YFACTOR=1.000000\n##FIRSTX=230.0000\n##LASTX=469.0000\n##FIRSTY=3.48001\n##MAXX=469\n##MINX=230\n##MAXY=3.48001\n##MINY=2.21\n##NPOINTS=240\n##$REF AUTHOR=Jakobson, G.G.; Shteingardts, V.D.; Vorozhtsov, N.N.\n##$REF TITLE=Synthesis of polyfluorochloroquinones\n##$REF JOURNAL=Zh. Vses. Khim. Ova. im. D. I. Mendeleeva\n##$REF VOLUME=9\n##$REF PAGE=701-702\n##$REF DATE=1964\n##XYPOINTS=(XY..XY)\n230.0000,3.480007\n231.0000,3.470000\n232.0000,3.460000\n233.0000,3.440000\n234.0000,3.430000\n235.0000,3.410000\n236.0000,3.400000\n237.0000,3.380000\n238.0000,3.350000\n239.0000,3.330000\n240.0000,3.320001\n241.0000,3.310000\n242.0000,3.300000\n243.0000,3.290000\n244.0000,3.280000\n245.0000,3.270000\n246.0000,3.260000\n247.0000,3.250000\n248.0000,3.240000\n249.0000,3.240000\n250.0000,3.229989\n251.0000,3.220000\n252.0000,3.220000\n253.0000,3.210000\n254.0000,3.200000\n255.0000,3.200000\n256.0000,3.190000\n257.0000,3.180000\n258.0000,3.180000\n259.0000,3.170000\n260.0000,3.169998\n261.0000,3.160000\n262.0000,3.160000\n263.0000,3.150000\n264.0000,3.140000\n265.0000,3.140000\n266.0000,3.130000\n267.0000,3.120000\n268.0000,3.120000\n269.0000,3.110000\n270.0000,3.099991\n271.0000,3.100000\n272.0000,3.090000\n273.0000,3.080000\n274.0000,3.080000\n275.0000,3.070000\n276.0000,3.060000\n277.0000,3.050000\n278.0000,3.040000\n279.0000,3.030000\n280.0000,3.019988\n281.0000,3.010000\n282.0000,2.990000\n283.0000,2.980000\n284.0000,2.960000\n285.0000,2.940000\n286.0000,2.920000\n287.0000,2.880000\n288.0000,2.860000\n289.0000,2.840000\n290.0000,2.829998\n291.0000,2.810000\n292.0000,2.800000\n293.0000,2.780000\n294.0000,2.770000\n295.0000,2.750000\n296.0000,2.740000\n297.0000,2.720000\n298.0000,2.710000\n299.0000,2.690000\n300.0000,2.680000\n301.0000,2.660000\n302.0000,2.650000\n303.0000,2.630000\n304.0000,2.620000\n305.0000,2.610000\n306.0000,2.590000\n307.0000,2.580000\n308.0000,2.570000\n309.0000,2.550000\n310.0000,2.549996\n311.0000,2.540000\n312.0000,2.530000\n313.0000,2.520000\n314.0000,2.510000\n315.0000,2.500000\n316.0000,2.500000\n317.0000,2.490000\n318.0000,2.480000\n319.0000,2.480000\n320.0000,2.480007\n321.0000,2.480000\n322.0000,2.480000\n323.0000,2.480000\n324.0000,2.470000\n325.0000,2.470000\n326.0000,2.470000\n327.0000,2.470000\n328.0000,2.470000\n329.0000,2.470000\n330.0000,2.480007\n331.0000,2.480000\n332.0000,2.480000\n333.0000,2.480000\n334.0000,2.480000\n335.0000,2.480000\n336.0000,2.490000\n337.0000,2.490000\n338.0000,2.500000\n339.0000,2.510000\n340.0000,2.509995\n341.0000,2.520000\n342.0000,2.520000\n343.0000,2.530000\n344.0000,2.540000\n345.0000,2.550000\n346.0000,2.550000\n347.0000,2.560000\n348.0000,2.570000\n349.0000,2.580000\n350.0000,2.580001\n351.0000,2.590000\n352.0000,2.600000\n353.0000,2.610000\n354.0000,2.620000\n355.0000,2.630000\n356.0000,2.640000\n357.0000,2.640000\n358.0000,2.650000\n359.0000,2.660000\n360.0000,2.670005\n361.0000,2.680000\n362.0000,2.690000\n363.0000,2.700000\n364.0000,2.710000\n365.0000,2.720000\n366.0000,2.730000\n367.0000,2.740000\n368.0000,2.740000\n369.0000,2.750000\n370.0000,2.760000\n371.0000,2.770000\n372.0000,2.780000\n373.0000,2.790000\n374.0000,2.790000\n375.0000,2.800000\n376.0000,2.810000\n377.0000,2.820000\n378.0000,2.820000\n379.0000,2.830000\n380.0000,2.839999\n381.0000,2.840000\n382.0000,2.850000\n383.0000,2.860000\n384.0000,2.860000\n385.0000,2.870000\n386.0000,2.870000\n387.0000,2.880000\n388.0000,2.880000\n389.0000,2.890000\n390.0000,2.890002\n391.0000,2.900000\n392.0000,2.910000\n393.0000,2.910000\n394.0000,2.920000\n395.0000,2.920000\n396.0000,2.930000\n397.0000,2.930000\n398.0000,2.930000\n399.0000,2.940000\n400.0000,2.939998\n401.0000,2.940000\n402.0000,2.940000\n403.0000,2.940000\n404.0000,2.950000\n405.0000,2.950000\n406.0000,2.950000\n407.0000,2.950000\n408.0000,2.950000\n409.0000,2.940000\n410.0000,2.939998\n411.0000,2.940000\n412.0000,2.940000\n413.0000,2.940000\n414.0000,2.940000\n415.0000,2.940000\n416.0000,2.930000\n417.0000,2.930000\n418.0000,2.930000\n419.0000,2.920000\n420.0000,2.919998\n421.0000,2.920000\n422.0000,2.910000\n423.0000,2.910000\n424.0000,2.900000\n425.0000,2.900000\n426.0000,2.890000\n427.0000,2.880000\n428.0000,2.880000\n429.0000,2.870000\n430.0000,2.860002\n431.0000,2.860000\n432.0000,2.850000\n433.0000,2.840000\n434.0000,2.830000\n435.0000,2.820000\n436.0000,2.810000\n437.0000,2.800000\n438.0000,2.780000\n439.0000,2.770000\n440.0000,2.760000\n441.0000,2.740000\n442.0000,2.730000\n443.0000,2.710000\n444.0000,2.690000\n445.0000,2.680000\n446.0000,2.660000\n447.0000,2.640000\n448.0000,2.630000\n449.0000,2.610000\n450.0000,2.590005\n451.0000,2.570000\n452.0000,2.550000\n453.0000,2.530000\n454.0000,2.510000\n455.0000,2.500000\n456.0000,2.480000\n457.0000,2.460000\n458.0000,2.450000\n459.0000,2.430000\n460.0000,2.410001\n461.0000,2.390000\n462.0000,2.370000\n463.0000,2.350000\n464.0000,2.330000\n465.0000,2.300000\n466.0000,2.280000\n467.0000,2.260000\n468.0000,2.230000\n469.0000,2.210000\n##END=\n'