b'##TITLE=(R)-2-methyl-1-azetidinecarbonitrile\n##JCAMP-DX=4.24\n##DATA TYPE=UV/VIS SPECTRUM\n##ORIGIN=INSTITUTE OF ENERGY PROBLEMS OF CHEMICAL PHYSICS, RAS\n##OWNER=INEP CP RAS, NIST OSRD\nCollection (C) 2007 copyright by the U.S. Secretary of Commerce\non behalf of the United States of America. All rights reserved.\n##CAS REGISTRY NO=52730-19-5\n##MOLFORM=C5H8N2\n##BP=95-96/ 25 mm\n##SOURCE REFERENCE=RAS UV No. 23793\n##$NIST SQUIB=1974KOS/39\n##$NIST SOURCE=TYUGLMTE\n##SPECTROMETER/DATA SYSTEM=Specord UV-Vis\n##XUNITS=Wavelength (nm)\n##YUNITS=Logarithm epsilon\n##XFACTOR=1.0\n##YFACTOR=1.0\n##FIRSTX=196.092\n##LASTX=238.032\n##FIRSTY=2.998\n##MAXX=238.032\n##MINX=196.092\n##MAXY=2.998\n##MINY=1.716\n##NPOINTS=43\n##$REF AUTHOR=Kostyanovsky, R.G.; et al.\n##$REF JOURNAL=Tetrahedron\n##$REF VOLUME=30\n##$REF PAGE=39\n##$REF DATE=1974\n##XYPOINTS=(XY..XY)\n196.092,2.998\n197.092,2.961\n198.092,2.935\n199.092,2.917\n200.092,2.904\n201.092,2.894\n202.092,2.884\n203.092,2.874\n204.092,2.862\n205.092,2.846\n206.092,2.824\n207.092,2.796\n208.092,2.761\n209.092,2.718\n210.000,2.674\n211.000,2.605\n212.000,2.545\n213.000,2.493\n214.000,2.447\n215.000,2.405\n216.000,2.367\n217.000,2.331\n218.000,2.295\n218.939,2.258\n219.939,2.219\n220.939,2.181\n221.939,2.144\n222.939,2.108\n223.939,2.074\n224.939,2.040\n225.939,2.008\n226.939,1.977\n227.939,1.946\n228.939,1.917\n229.939,1.889\n230.939,1.862\n232.032,1.832\n233.032,1.808\n234.032,1.787\n235.032,1.768\n236.032,1.750\n237.032,1.733\n238.032,1.716\n##END=\n'