b'##TITLE=Propane, 2-nitro-2-nitroso-\n##JCAMP-DX=4.24\n##DATA TYPE=UV/VIS SPECTRUM\n##ORIGIN=INSTITUTE OF ENERGY PROBLEMS OF CHEMICAL PHYSICS, RAS\n##OWNER=INEP CP RAS, NIST OSRD\nCollection (C) 2007 copyright by the U.S. Secretary of Commerce\non behalf of the United States of America. All rights reserved.\n##CAS REGISTRY NO=5275-46-7\n##MOLFORM=C3H6N2O3\n##MP=75\n##SOURCE REFERENCE=RAS UV No. 9305\n##$NIST SQUIB=1951EDW/TAT826\n##$NIST SOURCE=TYUGLMTE\n##SPECTROMETER/DATA SYSTEM=Beckman DU\n##XUNITS=Wavelength (nm)\n##YUNITS=Logarithm epsilon\n##XFACTOR=1.0\n##YFACTOR=1.0\n##FIRSTX=231\n##LASTX=295.36\n##FIRSTY=4.079\n##MAXX=295.36\n##MINX=231\n##MAXY=4.079\n##MINY=3.514\n##NPOINTS=108\n##$REF AUTHOR=Edwars Jr., W.R.; Tate, C.W.\n##$REF JOURNAL=Anal. Chem.\n##$REF VOLUME=23\n##$REF PAGE=826\n##$REF DATE=1951\n##XYPOINTS=(XY..XY)\n231.00,4.079\n231.52,4.075\n232.04,4.071\n232.56,4.066\n233.08,4.062\n233.60,4.058\n234.04,4.053\n234.56,4.049\n234.99,4.043\n235.34,4.038\n235.77,4.033\n236.21,4.027\n236.55,4.022\n236.82,4.016\n237.16,4.010\n237.51,4.005\n237.77,3.999\n238.03,3.993\n238.29,3.987\n238.55,3.980\n238.81,3.974\n239.07,3.967\n239.25,3.960\n239.51,3.953\n239.68,3.946\n239.77,3.938\n240.03,3.931\n240.46,3.925\n240.90,3.919\n241.33,3.912\n241.85,3.906\n242.37,3.900\n242.90,3.894\n243.50,3.888\n243.94,3.880\n244.63,3.875\n245.24,3.870\n245.85,3.865\n246.46,3.859\n246.98,3.853\n247.59,3.847\n248.19,3.840\n248.80,3.834\n249.41,3.828\n250.02,3.823\n250.63,3.816\n251.23,3.809\n251.84,3.804\n252.45,3.798\n253.06,3.790\n253.75,3.786\n254.45,3.780\n255.06,3.773\n255.75,3.768\n256.45,3.762\n257.14,3.755\n257.84,3.749\n258.36,3.739\n259.05,3.734\n259.75,3.729\n260.44,3.722\n261.14,3.714\n261.83,3.707\n262.53,3.700\n263.31,3.695\n263.92,3.688\n264.52,3.680\n265.22,3.674\n265.91,3.668\n266.61,3.661\n267.30,3.653\n268.00,3.648\n268.69,3.641\n269.39,3.634\n270.08,3.629\n270.78,3.624\n271.47,3.617\n272.16,3.609\n272.86,3.602\n273.64,3.597\n274.34,3.591\n275.03,3.585\n275.82,3.579\n276.60,3.573\n277.31,3.568\n278.16,3.563\n278.94,3.559\n279.72,3.557\n280.51,3.555\n281.29,3.553\n282.04,3.552\n282.84,3.552\n283.63,3.551\n284.41,3.551\n285.20,3.551\n285.98,3.549\n286.76,3.545\n287.57,3.542\n288.32,3.540\n289.07,3.540\n289.86,3.538\n290.67,3.534\n291.45,3.527\n292.23,3.523\n293.01,3.521\n293.80,3.518\n294.58,3.516\n295.36,3.514\n##END=\n'