b'##TITLE=L-Cysteine\n##JCAMP-DX=4.24\n##DATA TYPE=UV/VIS SPECTRUM\n##ORIGIN=INSTITUTE OF ENERGY PROBLEMS OF CHEMICAL PHYSICS, RAS\n##OWNER=INEP CP RAS, NIST OSRD\nCollection (C) 2007 copyright by the U.S. Secretary of Commerce\non behalf of the United States of America. All rights reserved.\n##CAS REGISTRY NO=52-90-4\n##MOLFORM=C3H7NO2S\n##SOURCE REFERENCE=RAS UV No. 19869\n##$NIST SQUIB=1971JOHj2/3\n##$NIST SOURCE=TYUGLMTE\n##SPECTROMETER/DATA SYSTEM=Unicam SP 500\n##XUNITS=Wavelength (nm)\n##YUNITS=Logarithm epsilon\n##XFACTOR=1.0\n##YFACTOR=1.0\n##FIRSTX=186.09\n##LASTX=252.51\n##FIRSTY=3.419\n##MAXX=252.51\n##MINX=186.09\n##MAXY=3.419\n##MINY=0.598\n##NPOINTS=124\n##$REF AUTHOR=Johnson, E.A.\n##$REF JOURNAL=UV atlas of organic compounds\n##$REF VOLUME=5\n##$REF PAGE=J2/3\n##$REF DATE=1971\n##XYPOINTS=(XY..XY)\n186.09,3.419\n186.17,3.419\n186.24,3.419\n186.32,3.417\n186.39,3.417\n186.47,3.415\n186.54,3.415\n186.61,3.412\n186.69,3.412\n186.76,3.412\n186.84,3.410\n186.91,3.410\n186.99,3.408\n187.06,3.408\n187.14,3.408\n187.21,3.406\n187.44,3.393\n187.89,3.387\n188.35,3.380\n188.80,3.372\n189.26,3.368\n189.72,3.361\n190.19,3.355\n190.65,3.351\n191.12,3.344\n191.59,3.340\n192.06,3.331\n192.54,3.327\n193.02,3.319\n193.50,3.310\n193.98,3.304\n194.46,3.295\n194.95,3.287\n195.44,3.276\n195.93,3.265\n196.43,3.248\n196.92,3.236\n197.42,3.214\n197.93,3.193\n198.43,3.172\n198.94,3.148\n199.45,3.123\n199.96,3.097\n200.48,3.070\n200.99,3.038\n201.51,3.010\n202.04,2.982\n202.56,2.955\n203.09,2.925\n203.62,2.895\n204.16,2.865\n204.69,2.835\n205.23,2.803\n205.78,2.774\n206.32,2.744\n206.87,2.720\n207.42,2.693\n207.98,2.659\n208.53,2.633\n209.09,2.610\n209.66,2.584\n210.22,2.561\n210.79,2.535\n211.36,2.512\n211.94,2.491\n212.52,2.469\n213.10,2.448\n213.69,2.422\n214.27,2.401\n214.87,2.380\n215.46,2.361\n216.06,2.344\n216.66,2.322\n217.27,2.299\n217.87,2.282\n218.49,2.265\n219.10,2.244\n219.72,2.222\n220.34,2.201\n220.97,2.175\n221.60,2.154\n222.23,2.131\n222.87,2.107\n223.51,2.086\n224.15,2.063\n224.80,2.033\n225.45,2.003\n226.10,1.982\n226.76,1.954\n227.42,1.928\n228.09,1.897\n228.76,1.869\n229.44,1.841\n230.11,1.811\n230.80,1.777\n231.48,1.743\n232.17,1.711\n232.87,1.681\n233.57,1.641\n234.27,1.607\n234.98,1.573\n235.69,1.532\n236.41,1.498\n237.13,1.464\n237.85,1.432\n238.58,1.409\n239.31,1.386\n240.05,1.354\n240.79,1.313\n241.54,1.268\n242.29,1.228\n243.05,1.190\n243.81,1.139\n244.58,1.098\n245.35,1.056\n246.13,1.004\n246.91,0.962\n247.69,0.907\n248.48,0.862\n249.28,0.815\n250.08,0.757\n250.89,0.715\n251.70,0.651\n252.51,0.598\n##END=\n'