b'##TITLE=Borazine, 2,4,6-trimethyl-\n##JCAMP-DX=4.24\n##DATA TYPE=UV/VIS SPECTRUM\n##ORIGIN=INSTITUTE OF ENERGY PROBLEMS OF CHEMICAL PHYSICS, RAS\n##OWNER=INEP CP RAS, NIST OSRD\nCollection (C) 2007 copyright by the U.S. Secretary of Commerce\non behalf of the United States of America. All rights reserved.\n##CAS REGISTRY NO=5314-85-2\n##MOLFORM=C3H12B3N3\n##SOURCE REFERENCE=RAS UV No. 16203\n##$NIST SQUIB=1972KRO/1585\n##$NIST SOURCE=TYUGLMTE\n##SPECTROMETER/DATA SYSTEM=McPherson 225\n##XUNITS=Wavelength (nm)\n##YUNITS=Logarithm epsilon\n##XFACTOR=1.0\n##YFACTOR=1.0\n##FIRSTX=119.65\n##LASTX=201.92\n##FIRSTY=4.28\n##MAXX=201.92\n##MINX=119.65\n##MAXY=4.503\n##MINY=1.07\n##NPOINTS=243\n##$REF AUTHOR=Kroner, J.; et al.\n##$REF JOURNAL=Tetrahedron\n##$REF VOLUME=28\n##$REF PAGE=1585\n##$REF DATE=1972\n##XYPOINTS=(XY..XY)\n119.65,4.280\n119.70,4.280\n119.75,4.280\n119.80,4.283\n119.85,4.283\n119.90,4.283\n119.95,4.287\n120.01,4.287\n120.06,4.287\n120.11,4.287\n120.21,4.290\n120.41,4.294\n120.61,4.301\n120.82,4.304\n121.02,4.311\n121.22,4.315\n121.43,4.318\n121.64,4.325\n121.84,4.329\n122.05,4.332\n122.26,4.339\n122.47,4.343\n122.68,4.350\n123.10,4.353\n123.31,4.360\n123.53,4.363\n123.74,4.370\n123.95,4.374\n124.17,4.381\n124.38,4.384\n124.60,4.384\n124.82,4.388\n125.04,4.388\n125.47,4.402\n125.69,4.409\n126.14,4.419\n126.36,4.419\n126.58,4.419\n126.81,4.419\n127.03,4.416\n127.26,4.416\n127.71,4.419\n127.94,4.419\n128.17,4.419\n128.40,4.419\n128.63,4.412\n128.86,4.412\n129.09,4.409\n129.33,4.409\n129.56,4.402\n129.80,4.398\n130.03,4.391\n130.27,4.388\n130.51,4.381\n130.74,4.374\n131.22,4.360\n131.47,4.353\n131.71,4.346\n131.95,4.336\n132.19,4.329\n132.44,4.325\n132.68,4.315\n132.93,4.304\n133.18,4.294\n133.43,4.287\n133.67,4.280\n133.92,4.273\n134.18,4.263\n134.43,4.256\n134.68,4.242\n134.93,4.235\n135.19,4.228\n135.44,4.221\n135.70,4.214\n135.96,4.207\n136.22,4.197\n136.48,4.193\n136.74,4.186\n137.00,4.179\n137.26,4.172\n137.53,4.169\n137.79,4.162\n138.06,4.155\n138.32,4.151\n138.86,4.137\n139.13,4.134\n139.40,4.130\n139.67,4.120\n139.95,4.117\n140.22,4.110\n140.50,4.110\n140.77,4.103\n141.05,4.099\n141.33,4.089\n141.61,4.085\n141.89,4.085\n142.17,4.085\n142.45,4.085\n142.74,4.085\n143.02,4.085\n143.31,4.089\n143.60,4.096\n143.88,4.099\n144.17,4.103\n144.46,4.106\n144.76,4.113\n145.05,4.120\n145.34,4.123\n145.64,4.130\n145.94,4.137\n146.24,4.144\n146.53,4.151\n146.84,4.158\n147.14,4.165\n147.44,4.176\n147.74,4.183\n148.05,4.190\n148.36,4.200\n148.67,4.203\n148.97,4.214\n149.29,4.221\n149.60,4.231\n149.91,4.238\n150.22,4.256\n150.54,4.259\n150.86,4.266\n151.18,4.277\n151.50,4.287\n151.82,4.297\n152.14,4.304\n152.46,4.315\n152.79,4.325\n153.12,4.336\n153.45,4.350\n153.77,4.360\n154.11,4.370\n154.44,4.381\n154.77,4.395\n155.11,4.405\n155.44,4.412\n155.78,4.426\n156.46,4.450\n156.81,4.454\n157.15,4.464\n157.50,4.471\n157.84,4.482\n158.19,4.489\n158.54,4.492\n158.89,4.499\n159.25,4.503\n159.60,4.503\n159.96,4.503\n160.32,4.503\n161.04,4.496\n161.40,4.489\n161.77,4.478\n162.13,4.471\n162.50,4.454\n162.87,4.437\n163.24,4.423\n163.62,4.398\n163.99,4.377\n164.37,4.360\n164.75,4.332\n165.13,4.304\n165.51,4.273\n165.89,4.256\n166.28,4.231\n166.66,4.217\n167.05,4.207\n167.44,4.190\n167.84,4.176\n168.23,4.158\n168.63,4.144\n169.02,4.134\n169.42,4.099\n169.83,4.078\n170.23,4.057\n170.64,4.037\n171.04,4.012\n171.45,3.988\n171.86,3.974\n172.28,3.953\n172.69,3.922\n173.11,3.894\n173.53,3.873\n173.95,3.838\n174.38,3.800\n174.80,3.772\n175.23,3.730\n175.66,3.696\n176.09,3.661\n176.53,3.630\n176.96,3.595\n177.40,3.563\n177.84,3.532\n178.28,3.494\n178.73,3.466\n179.18,3.428\n179.63,3.386\n180.08,3.355\n180.53,3.323\n180.99,3.285\n181.45,3.254\n181.91,3.216\n182.37,3.188\n182.84,3.153\n183.31,3.122\n183.78,3.090\n184.25,3.052\n184.73,3.024\n185.20,2.993\n185.68,2.958\n186.17,2.923\n186.65,2.889\n187.14,2.864\n187.63,2.833\n188.12,2.809\n188.62,2.788\n189.12,2.760\n189.62,2.743\n190.12,2.725\n190.63,2.701\n191.65,2.666\n192.16,2.652\n192.68,2.635\n193.20,2.617\n193.72,2.597\n194.25,2.565\n194.78,2.523\n195.31,2.478\n195.84,2.402\n196.38,2.256\n196.92,2.148\n197.46,2.043\n198.01,1.922\n198.56,1.803\n199.11,1.685\n199.67,1.536\n200.23,1.421\n200.79,1.285\n201.35,1.174\n201.92,1.070\n##END=\n'