b'##TITLE=Furan, 2-methyl-\n##JCAMP-DX=4.24\n##DATA TYPE=UV/VIS SPECTRUM\n##ORIGIN=INSTITUTE OF ENERGY PROBLEMS OF CHEMICAL PHYSICS, RAS\n##OWNER=INEP CP RAS, NIST OSRD\nCollection (C) 2007 copyright by the U.S. Secretary of Commerce\non behalf of the United States of America. All rights reserved.\n##CAS REGISTRY NO=534-22-5\n##MOLFORM=C5H6O\n##MP=-87.5\n##BP=65\n##SOURCE REFERENCE=RAS UV No. 3384\n##$NIST SQUIB=1952RIC3193-3194\n##$NIST SOURCE=TSGMTE\n##SPECTROMETER/DATA SYSTEM=n.i.g.\n##XUNITS=Wavelength (nm)\n##YUNITS=Logarithm epsilon\n##XFACTOR=1.000000\n##YFACTOR=1.000000\n##FIRSTX=215.3380\n##LASTX=261.6744\n##FIRSTY=3.8675\n##MAXX=261.674\n##MINX=215.338\n##MAXY=3.8675\n##MINY=2.14595\n##NPOINTS=184\n##$REF AUTHOR=Rice, H.L.\n##$REF TITLE=The structure of methylenedihydrofuran\n##$REF JOURNAL=J. Am. Chem. Soc.\n##$REF VOLUME=74\n##$REF PAGE=3193-3194\n##$REF DATE=1952\n##XYPOINTS=(XY..XY)\n215.3380,3.867502\n215.9893,3.866531\n216.5384,3.864696\n217.0037,3.862144\n217.4035,3.859025\n217.7563,3.855488\n218.0804,3.851687\n218.3942,3.847780\n218.3942,3.847780\n218.7542,3.841816\n219.0870,3.835948\n219.3743,3.830784\n219.5980,3.826960\n219.7400,3.825124\n219.7400,3.825124\n219.9049,3.821477\n220.0671,3.817794\n220.2266,3.814073\n220.3836,3.810315\n220.5117,3.815288\n220.5118,3.815663\n220.5120,3.816023\n220.5121,3.816356\n220.5379,3.806518\n220.6670,3.805814\n220.6898,3.802683\n220.7421,3.805813\n220.7794,3.806583\n220.8158,3.803944\n220.8171,3.806515\n220.8193,3.805811\n220.8393,3.798808\n220.8441,3.804586\n220.8569,3.806434\n220.8723,3.805213\n220.9006,3.805810\n220.9006,3.805810\n220.9008,3.806324\n220.9864,3.794892\n221.1313,3.790936\n221.2739,3.786939\n221.4143,3.782899\n221.5527,3.778817\n221.6890,3.774690\n221.8234,3.770520\n221.9558,3.766305\n222.0865,3.762043\n222.2153,3.757735\n222.3424,3.753380\n222.4679,3.748976\n222.5918,3.744523\n222.7142,3.740020\n222.8352,3.735466\n222.9547,3.730859\n223.0730,3.726200\n223.1899,3.721486\n223.3057,3.716718\n223.4203,3.711893\n223.5339,3.707011\n223.6465,3.702070\n223.7581,3.697070\n223.8689,3.692009\n223.9788,3.686885\n224.0880,3.681697\n224.1965,3.676445\n224.3045,3.671126\n224.4118,3.665739\n224.5187,3.660283\n224.6251,3.654755\n224.7312,3.649155\n224.8370,3.643480\n224.9425,3.637729\n225.0479,3.631900\n225.1532,3.625990\n225.2584,3.619999\n225.3637,3.613923\n225.4690,3.607760\n225.5746,3.601509\n225.6803,3.595167\n225.7863,3.588731\n225.8926,3.582199\n225.9994,3.575568\n226.1067,3.568836\n226.2144,3.561999\n226.3228,3.555054\n226.4319,3.547998\n226.5417,3.540827\n226.6522,3.533539\n226.7637,3.526129\n226.8761,3.518593\n226.9894,3.510928\n227.1038,3.503129\n227.2193,3.495191\n227.2193,3.495191\n227.3591,3.487094\n227.4994,3.478842\n227.6401,3.470427\n227.7813,3.461843\n227.9230,3.453084\n228.0651,3.444142\n228.2078,3.435010\n228.3509,3.425678\n228.4945,3.416139\n228.6386,3.406383\n228.7832,3.396399\n228.9282,3.386177\n229.0738,3.375706\n229.2199,3.364972\n229.3665,3.353963\n229.5136,3.342664\n229.6612,3.331060\n229.8094,3.319133\n229.9580,3.306866\n230.1072,3.294237\n230.2569,3.281226\n230.4071,3.267809\n230.5579,3.253960\n230.7092,3.239649\n230.8610,3.224845\n231.0134,3.209514\n231.1663,3.193616\n231.3198,3.177108\n231.4738,3.159942\n231.6284,3.142063\n231.7835,3.123409\n231.9392,3.103911\n232.0954,3.083489\n232.0954,3.083489\n232.4823,3.064645\n232.8784,3.038153\n233.2691,3.008281\n233.6399,2.980496\n233.6399,2.980496\n234.1129,2.957306\n234.5795,2.934771\n235.0473,2.912631\n235.5238,2.890554\n236.0165,2.868128\n236.5330,2.844848\n237.0808,2.820099\n237.6675,2.793118\n237.6675,2.793118\n238.7351,2.758849\n239.5704,2.731904\n240.1825,2.711811\n240.5810,2.697493\n240.7751,2.687378\n240.7751,2.687378\n241.3429,2.674287\n241.9117,2.661158\n242.4816,2.647989\n243.0526,2.634780\n243.6245,2.621528\n244.1974,2.608233\n244.7713,2.594891\n245.3460,2.581501\n245.9217,2.568058\n246.4982,2.554561\n247.0754,2.541004\n247.6535,2.527382\n248.2323,2.513691\n248.8118,2.499924\n249.3920,2.486072\n249.9728,2.472129\n250.5543,2.458084\n251.1363,2.443927\n251.7189,2.429648\n252.3020,2.415231\n252.8855,2.400664\n253.4695,2.385928\n254.0540,2.371006\n254.6388,2.355876\n255.2239,2.340516\n255.8094,2.324900\n256.3952,2.308997\n256.9812,2.292775\n257.5674,2.276200\n258.1538,2.259226\n258.7404,2.241810\n259.3271,2.223897\n259.9139,2.205428\n260.5007,2.186334\n261.0876,2.166540\n261.6744,2.145951\n##END=\n'