b'##TITLE=N-methyl-2-thiophenesulfonamide\n##JCAMP-DX=4.24\n##DATA TYPE=UV/VIS SPECTRUM\n##ORIGIN=INSTITUTE OF ENERGY PROBLEMS OF CHEMICAL PHYSICS, RAS\n##OWNER=INEP CP RAS, NIST OSRD\nCollection (C) 2007 copyright by the U.S. Secretary of Commerce\non behalf of the United States of America. All rights reserved.\n##CAS REGISTRY NO=53442-30-1\n##MOLFORM=C5H7NO2S2\n##MP=71-72\n##SOURCE REFERENCE=RAS UV No. 23595\n##$NIST SQUIB=1974ARC/611\n##$NIST SOURCE=TYUGLMTE\n##SPECTROMETER/DATA SYSTEM=Perkin-Elmer-Hitachi EPS-3T\n##XUNITS=Wavelength (nm)\n##YUNITS=Logarithm epsilon\n##XFACTOR=1.0\n##YFACTOR=1.0\n##FIRSTX=208.742\n##LASTX=272.842\n##FIRSTY=3.144\n##MAXX=272.842\n##MINX=208.742\n##MAXY=3.929\n##MINY=2.821\n##NPOINTS=67\n##$REF AUTHOR=Arcoria, A.; et al.\n##$REF JOURNAL=Spectrochim. Acta\n##$REF VOLUME=30A\n##$REF PAGE=611\n##$REF DATE=1974\n##XYPOINTS=(XY..XY)\n208.742,3.144\n209.742,3.155\n210.742,3.176\n211.742,3.204\n212.742,3.238\n213.742,3.275\n214.742,3.315\n215.742,3.354\n216.742,3.394\n217.742,3.434\n218.742,3.472\n219.742,3.509\n220.742,3.545\n221.742,3.580\n222.729,3.613\n223.729,3.653\n224.729,3.690\n225.729,3.726\n226.729,3.758\n227.729,3.786\n228.729,3.812\n229.729,3.834\n230.729,3.854\n231.729,3.871\n232.729,3.885\n233.729,3.897\n234.729,3.908\n235.729,3.916\n236.729,3.923\n237.729,3.927\n238.628,3.929\n239.628,3.925\n240.628,3.919\n241.628,3.911\n242.628,3.902\n243.628,3.893\n244.628,3.885\n245.628,3.877\n246.628,3.870\n247.628,3.863\n248.628,3.857\n249.628,3.851\n250.628,3.845\n251.628,3.838\n252.628,3.831\n253.628,3.822\n254.628,3.812\n255.628,3.800\n256.628,3.786\n257.628,3.770\n257.647,3.770\n258.647,3.748\n259.647,3.724\n260.647,3.695\n261.647,3.661\n262.647,3.621\n263.647,3.575\n264.647,3.524\n265.647,3.466\n266.647,3.401\n267.647,3.328\n268.616,3.244\n269.616,3.153\n270.616,3.058\n271.616,2.955\n272.616,2.848\n272.842,2.821\n##END=\n'