b'##TITLE=tert-Butyl nitrite\n##JCAMP-DX=4.24\n##DATA TYPE=UV/VIS SPECTRUM\n##ORIGIN=INSTITUTE OF ENERGY PROBLEMS OF CHEMICAL PHYSICS, RAS\n##OWNER=INEP CP RAS, NIST OSRD\nCollection (C) 2007 copyright by the U.S. Secretary of Commerce\non behalf of the United States of America. All rights reserved.\n##CAS REGISTRY NO=540-80-7\n##MOLFORM=C4H9NO2\n##BP=62-63/ 754 mm\n##SOURCE REFERENCE=RAS UV No. 19969\n##$NIST SQUIB=1966ALDc4/3\n##$NIST SOURCE=TYUGLMTE\n##SPECTROMETER/DATA SYSTEM=Unicam SP 700\n##XUNITS=Wavelength (nm)\n##YUNITS=Logarithm epsilon\n##XFACTOR=1.0\n##YFACTOR=1.0\n##FIRSTX=188.67\n##LASTX=424.39\n##FIRSTY=2.947\n##MAXX=424.39\n##MINX=188.67\n##MAXY=3.235\n##MINY=0.66\n##NPOINTS=327\n##$REF AUTHOR=Aldrich, J.E.\n##$REF JOURNAL=UV atlas of organic compounds\n##$REF VOLUME=1\n##$REF PAGE=C4/3\n##$REF DATE=1966\n##XYPOINTS=(XY..XY)\n188.67,2.947\n188.75,2.947\n188.83,2.949\n188.90,2.949\n188.98,2.951\n189.06,2.954\n189.13,2.954\n189.21,2.956\n189.29,2.956\n189.36,2.958\n189.44,2.958\n189.52,2.960\n189.60,2.962\n189.67,2.962\n189.75,2.964\n189.83,2.964\n189.91,2.966\n190.53,2.977\n191.15,2.988\n191.78,3.001\n192.42,3.011\n193.06,3.024\n193.70,3.037\n194.35,3.050\n195.00,3.060\n195.65,3.071\n196.31,3.082\n196.98,3.090\n197.65,3.101\n198.32,3.109\n199.00,3.116\n199.68,3.124\n200.37,3.135\n201.06,3.141\n201.76,3.148\n202.46,3.156\n203.17,3.163\n203.88,3.167\n204.60,3.176\n205.32,3.180\n206.05,3.186\n206.78,3.188\n207.52,3.195\n208.26,3.199\n209.01,3.201\n209.76,3.208\n210.52,3.212\n211.29,3.214\n212.06,3.218\n212.83,3.221\n213.62,3.223\n214.40,3.225\n215.20,3.229\n215.99,3.231\n216.80,3.233\n217.61,3.233\n218.43,3.233\n219.25,3.235\n220.08,3.235\n220.92,3.233\n221.76,3.233\n222.61,3.233\n223.46,3.233\n224.32,3.231\n225.19,3.229\n226.07,3.223\n226.95,3.218\n227.84,3.212\n228.73,3.208\n229.64,3.199\n230.55,3.191\n231.46,3.186\n232.39,3.176\n233.32,3.167\n234.26,3.156\n235.21,3.146\n236.16,3.135\n237.13,3.122\n238.10,3.105\n239.07,3.092\n240.06,3.080\n241.06,3.062\n242.06,3.043\n243.07,3.022\n244.09,3.003\n245.12,2.979\n246.16,2.958\n247.20,2.936\n248.26,2.907\n249.32,2.883\n250.39,2.851\n251.48,2.823\n252.57,2.793\n253.67,2.761\n254.78,2.731\n255.90,2.699\n257.03,2.670\n258.17,2.637\n259.32,2.603\n260.49,2.567\n261.66,2.533\n262.84,2.497\n264.03,2.460\n265.24,2.422\n266.45,2.385\n267.68,2.345\n268.91,2.304\n270.16,2.257\n271.42,2.215\n272.70,2.172\n273.98,2.123\n275.28,2.080\n276.59,2.035\n277.91,1.990\n279.24,1.948\n280.59,1.899\n281.95,1.856\n283.32,1.809\n284.71,1.764\n286.11,1.711\n287.52,1.668\n288.95,1.619\n290.39,1.570\n291.85,1.518\n293.32,1.476\n294.81,1.427\n296.31,1.384\n297.83,1.339\n299.36,1.294\n300.91,1.251\n302.47,1.209\n304.05,1.170\n305.65,1.134\n307.27,1.102\n308.90,1.072\n311.38,1.034\n312.87,1.021\n314.61,1.009\n315.58,1.003\n316.46,0.995\n316.89,0.991\n317.32,0.987\n317.76,0.982\n318.19,0.982\n318.63,0.987\n319.06,0.993\n319.50,0.997\n319.94,0.999\n320.38,0.999\n320.82,0.998\n321.27,0.993\n321.71,0.987\n322.13,0.985\n322.60,0.985\n323.05,0.987\n323.50,0.991\n323.95,1.004\n324.40,1.017\n324.76,1.021\n325.31,1.023\n325.76,1.019\n326.22,1.014\n326.68,1.014\n327.14,1.019\n327.60,1.036\n328.06,1.057\n328.52,1.078\n328.99,1.100\n329.45,1.121\n329.92,1.140\n330.39,1.145\n330.86,1.145\n331.33,1.140\n331.80,1.125\n332.28,1.108\n332.75,1.102\n333.23,1.100\n333.71,1.098\n334.18,1.100\n334.67,1.102\n335.15,1.106\n335.63,1.113\n336.12,1.119\n336.60,1.130\n337.09,1.143\n337.58,1.158\n338.07,1.179\n338.56,1.202\n339.05,1.226\n339.55,1.251\n340.05,1.288\n340.54,1.324\n341.04,1.386\n341.54,1.390\n342.04,1.390\n342.55,1.386\n343.05,1.373\n343.56,1.326\n344.07,1.294\n344.58,1.273\n345.09,1.258\n345.60,1.251\n346.11,1.249\n346.63,1.249\n347.15,1.251\n347.67,1.258\n348.19,1.269\n348.71,1.281\n349.23,1.296\n349.76,1.320\n350.28,1.343\n350.81,1.367\n351.34,1.401\n351.87,1.446\n352.40,1.495\n352.94,1.595\n353.48,1.632\n354.01,1.636\n354.55,1.636\n355.09,1.632\n355.64,1.585\n356.18,1.527\n356.73,1.489\n357.27,1.456\n357.82,1.427\n358.38,1.405\n358.93,1.386\n359.48,1.380\n360.04,1.377\n360.60,1.375\n361.16,1.377\n361.72,1.382\n362.28,1.388\n362.85,1.405\n363.41,1.429\n363.98,1.454\n364.55,1.495\n365.12,1.546\n365.70,1.589\n366.27,1.636\n366.85,1.676\n367.43,1.728\n368.01,1.764\n368.59,1.766\n369.18,1.747\n369.77,1.702\n370.35,1.595\n370.94,1.540\n371.54,1.489\n372.13,1.454\n372.73,1.414\n373.32,1.384\n373.92,1.373\n374.53,1.369\n375.13,1.371\n375.74,1.373\n376.34,1.380\n376.95,1.405\n377.56,1.456\n378.18,1.499\n378.79,1.536\n379.41,1.578\n380.03,1.617\n380.65,1.657\n381.28,1.702\n381.90,1.751\n382.53,1.792\n383.16,1.837\n383.79,1.839\n384.43,1.824\n385.06,1.753\n385.70,1.702\n386.34,1.640\n386.98,1.585\n387.63,1.538\n388.28,1.493\n388.92,1.456\n389.58,1.418\n390.23,1.386\n390.88,1.367\n391.54,1.363\n392.20,1.360\n392.86,1.360\n393.53,1.363\n394.20,1.369\n394.86,1.388\n395.54,1.424\n396.21,1.454\n396.88,1.489\n397.56,1.516\n398.24,1.546\n398.93,1.597\n399.61,1.619\n400.30,1.647\n400.99,1.659\n401.68,1.662\n402.38,1.659\n403.07,1.636\n403.77,1.580\n404.47,1.508\n405.18,1.448\n405.88,1.395\n406.59,1.343\n407.31,1.305\n408.02,1.241\n408.74,1.183\n409.46,1.128\n410.18,1.072\n410.90,1.019\n411.63,0.976\n412.36,0.942\n413.09,0.908\n413.82,0.884\n414.56,0.863\n415.30,0.835\n416.04,0.814\n416.79,0.797\n417.54,0.773\n418.29,0.760\n419.04,0.741\n419.80,0.724\n420.56,0.711\n421.32,0.696\n422.08,0.681\n422.85,0.668\n423.62,0.660\n424.39,0.662\n##END=\n'