b'##TITLE=2-Butenoic acid, 3-methyl-\n##JCAMP-DX=4.24\n##DATA TYPE=UV/VIS SPECTRUM\n##ORIGIN=INSTITUTE OF ENERGY PROBLEMS OF CHEMICAL PHYSICS, RAS\n##OWNER=INEP CP RAS, NIST OSRD\nCollection (C) 2007 copyright by the U.S. Secretary of Commerce\non behalf of the United States of America. All rights reserved.\n##CAS REGISTRY NO=541-47-9\n##MOLFORM=C5H8O2\n##MP=68-69\n##SOURCE REFERENCE=RAS UV No. 19946\n##$NIST SQUIB=1966JOHb6/3\n##$NIST SOURCE=TYUGLMTE\n##SPECTROMETER/DATA SYSTEM=Unicam SP 500\n##XUNITS=Wavelength (nm)\n##YUNITS=Logarithm epsilon\n##XFACTOR=1.0\n##YFACTOR=1.0\n##FIRSTX=189.87\n##LASTX=282.41\n##FIRSTY=3.497\n##MAXX=282.41\n##MINX=189.87\n##MAXY=4.085\n##MINY=0.701\n##NPOINTS=154\n##$REF AUTHOR=Johnson, E.A.\n##$REF JOURNAL=UV atlas of organic compouds\n##$REF VOLUME=1\n##$REF PAGE=B6/3\n##$REF DATE=1966\n##XYPOINTS=(XY..XY)\n189.87,3.497\n189.95,3.497\n190.03,3.497\n190.11,3.497\n190.18,3.497\n190.26,3.497\n190.34,3.495\n190.42,3.495\n190.49,3.495\n190.57,3.495\n190.65,3.495\n190.73,3.495\n190.81,3.495\n190.88,3.493\n190.96,3.493\n191.04,3.493\n191.12,3.493\n191.20,3.493\n191.27,3.493\n191.35,3.491\n191.67,3.488\n192.14,3.488\n192.62,3.488\n193.09,3.491\n193.57,3.493\n194.06,3.499\n194.54,3.501\n195.03,3.512\n195.52,3.518\n196.01,3.525\n196.51,3.536\n197.00,3.546\n197.50,3.557\n198.00,3.568\n198.51,3.585\n199.02,3.600\n199.53,3.610\n200.04,3.632\n200.56,3.647\n201.07,3.666\n201.59,3.679\n202.12,3.698\n202.64,3.717\n203.17,3.734\n203.70,3.754\n204.24,3.775\n204.78,3.790\n205.32,3.809\n205.86,3.828\n206.40,3.843\n206.95,3.863\n207.51,3.875\n208.06,3.895\n208.62,3.910\n209.18,3.927\n209.74,3.940\n210.31,3.950\n210.88,3.967\n211.45,3.980\n212.03,3.993\n212.61,4.002\n213.19,4.014\n213.77,4.025\n214.36,4.036\n214.95,4.044\n215.55,4.055\n216.15,4.059\n216.75,4.066\n217.35,4.070\n217.96,4.076\n218.58,4.079\n219.19,4.079\n219.81,4.081\n220.43,4.083\n221.06,4.085\n221.69,4.083\n222.32,4.076\n222.96,4.076\n223.60,4.072\n224.24,4.066\n224.89,4.064\n225.54,4.055\n226.20,4.049\n226.86,4.042\n227.52,4.032\n228.19,4.021\n228.86,4.010\n229.53,3.993\n230.21,3.980\n230.89,3.967\n231.58,3.946\n232.27,3.929\n232.97,3.912\n233.67,3.893\n234.37,3.869\n235.08,3.848\n235.79,3.824\n236.51,3.798\n237.23,3.771\n237.95,3.745\n238.68,3.715\n239.42,3.687\n240.15,3.649\n240.90,3.617\n241.64,3.583\n242.40,3.548\n243.15,3.503\n243.92,3.469\n244.68,3.429\n245.45,3.386\n246.23,3.341\n247.01,3.298\n247.80,3.255\n248.59,3.213\n249.39,3.168\n250.19,3.116\n250.99,3.052\n251.81,3.001\n252.62,2.952\n253.45,2.898\n254.27,2.845\n255.11,2.783\n255.95,2.729\n256.79,2.678\n257.64,2.618\n258.50,2.563\n259.36,2.492\n260.22,2.437\n261.10,2.375\n261.98,2.313\n262.89,2.242\n263.75,2.179\n264.65,2.116\n265.44,2.066\n266.32,2.005\n267.25,1.944\n268.30,1.870\n269.22,1.797\n270.16,1.735\n271.10,1.667\n272.05,1.594\n273.00,1.522\n273.96,1.447\n274.93,1.357\n275.90,1.291\n276.88,1.212\n277.87,1.137\n278.87,1.049\n279.87,0.970\n281.05,0.852\n281.22,0.842\n281.39,0.833\n281.73,0.771\n282.41,0.701\n##END=\n'