b'##TITLE=Thiazole, 2,4-dimethyl-\n##JCAMP-DX=4.24\n##DATA TYPE=UV/VIS SPECTRUM\n##ORIGIN=INSTITUTE OF ENERGY PROBLEMS OF CHEMICAL PHYSICS, RAS\n##OWNER=INEP CP RAS, NIST OSRD\nCollection (C) 2007 copyright by the U.S. Secretary of Commerce\non behalf of the United States of America. All rights reserved.\n##CAS REGISTRY NO=541-58-2\n##MOLFORM=C5H7NS\n##SOURCE REFERENCE=RAS UV No. 16244\n##$NIST SQUIB=1972ZAI/1471\n##$NIST SOURCE=TYUGLMTE\n##SPECTROMETER/DATA SYSTEM=SF-4a\n##XUNITS=Wavelength (nm)\n##YUNITS=Logarithm epsilon\n##XFACTOR=1.0\n##YFACTOR=1.0\n##FIRSTX=213.56\n##LASTX=288.97\n##FIRSTY=3.128\n##MAXX=288.97\n##MINX=213.56\n##MAXY=3.517\n##MINY=2.131\n##NPOINTS=52\n##$REF AUTHOR=Zaionts, V.I.; et al.\n##$REF JOURNAL=Khim. Geterosikl. Soedin.\n##$REF VOLUME=8\n##$REF PAGE=1471\n##$REF DATE=1972\n##XYPOINTS=(XY..XY)\n213.56,3.128\n215.64,3.154\n217.72,3.180\n219.80,3.211\n221.88,3.237\n223.66,3.268\n225.44,3.299\n227.22,3.330\n229.00,3.367\n230.48,3.408\n231.97,3.444\n234.05,3.470\n236.12,3.496\n238.50,3.512\n241.17,3.517\n243.84,3.517\n246.22,3.502\n248.30,3.476\n250.08,3.439\n251.56,3.403\n253.05,3.367\n254.53,3.325\n256.02,3.283\n256.91,3.237\n258.09,3.195\n258.98,3.154\n259.88,3.112\n260.77,3.071\n261.36,3.024\n262.25,2.982\n263.14,2.941\n264.03,2.894\n264.92,2.853\n265.52,2.806\n266.41,2.764\n267.30,2.723\n267.89,2.676\n268.48,2.629\n269.38,2.588\n270.27,2.541\n270.86,2.494\n271.75,2.453\n272.64,2.406\n273.53,2.364\n275.02,2.328\n276.20,2.287\n277.98,2.250\n279.77,2.219\n281.84,2.193\n284.22,2.178\n286.59,2.152\n288.97,2.131\n##END=\n'