b'##TITLE=1H-Pyrrole-2,5-dione\n##JCAMP-DX=4.24\n##DATA TYPE=UV/VIS SPECTRUM\n##ORIGIN=INSTITUTE OF ENERGY PROBLEMS OF CHEMICAL PHYSICS, RAS\n##OWNER=INEP CP RAS, NIST OSRD\nCollection (C) 2007 copyright by the U.S. Secretary of Commerce\non behalf of the United States of America. All rights reserved.\n##CAS REGISTRY NO=541-59-3\n##MOLFORM=C4H3NO2\n##SOURCE REFERENCE=RAS UV No. 15978\n##$NIST SQUIB=1973SCH662\n##$NIST SOURCE=TYUGLMTE\n##SPECTROMETER/DATA SYSTEM=Cary 14\n##XUNITS=Wavelength (nm)\n##YUNITS=Logarithm epsilon\n##XFACTOR=1.0\n##YFACTOR=1.0\n##FIRSTX=203.16\n##LASTX=379.6\n##FIRSTY=4.127\n##MAXX=379.6\n##MINX=203.16\n##MAXY=4.23\n##MINY=0.055\n##NPOINTS=224\n##$REF AUTHOR=Scharf ahd H. Laismann, H.D.\n##$REF JOURNAL=Z. Naturforsch.\n##$REF VOLUME=28 b\n##$REF PAGE=662\n##$REF DATE=1973\n##XYPOINTS=(XY..XY)\n203.16,4.127\n203.30,4.133\n203.45,4.133\n203.59,4.133\n203.74,4.138\n203.89,4.138\n204.03,4.138\n204.18,4.144\n204.33,4.144\n204.48,4.150\n204.62,4.150\n204.92,4.144\n205.37,4.150\n205.81,4.161\n206.26,4.167\n206.71,4.173\n207.17,4.179\n207.62,4.184\n208.08,4.190\n208.54,4.196\n209.00,4.196\n209.47,4.207\n209.93,4.213\n210.40,4.213\n210.87,4.219\n211.34,4.219\n211.82,4.219\n212.29,4.219\n212.77,4.225\n213.25,4.225\n213.73,4.230\n214.22,4.230\n214.71,4.230\n215.20,4.230\n215.69,4.230\n216.18,4.230\n216.68,4.225\n217.18,4.225\n217.68,4.219\n218.18,4.213\n218.69,4.207\n219.19,4.196\n219.70,4.190\n220.22,4.190\n220.73,4.184\n221.25,4.184\n221.77,4.179\n222.29,4.167\n222.81,4.150\n223.34,4.133\n223.87,4.104\n224.40,4.098\n224.94,4.081\n225.48,4.052\n226.02,4.018\n226.56,3.989\n227.10,3.949\n227.65,3.920\n228.20,3.892\n228.75,3.874\n229.31,3.846\n229.87,3.823\n230.43,3.794\n230.99,3.759\n231.56,3.719\n232.13,3.685\n232.70,3.639\n233.28,3.576\n233.85,3.501\n234.43,3.444\n235.02,3.386\n235.60,3.340\n236.19,3.317\n236.79,3.306\n237.38,3.271\n237.98,3.242\n238.58,3.220\n239.19,3.191\n239.79,3.036\n240.40,2.973\n241.02,2.944\n241.63,2.927\n242.25,2.915\n242.88,2.892\n243.50,2.886\n244.13,2.881\n244.77,2.881\n245.40,2.886\n246.04,2.892\n246.69,2.898\n247.33,2.904\n247.98,2.909\n248.63,2.915\n249.29,2.927\n249.95,2.921\n250.61,2.932\n251.28,2.944\n251.95,2.950\n252.63,2.967\n253.30,2.973\n253.99,2.984\n254.67,2.996\n255.36,3.001\n256.05,3.007\n256.75,3.013\n257.45,3.024\n258.15,3.024\n258.86,3.030\n259.57,3.036\n260.29,3.041\n261.01,3.047\n261.73,3.053\n262.46,3.053\n263.19,3.053\n263.93,3.059\n264.67,3.059\n265.41,3.053\n266.16,3.053\n266.91,3.053\n267.67,3.059\n268.43,3.059\n269.19,3.059\n269.96,3.059\n270.74,3.053\n271.52,3.047\n272.30,3.041\n273.09,3.030\n273.88,3.024\n274.68,3.018\n275.48,3.018\n276.28,3.013\n277.10,3.013\n277.91,3.001\n278.73,2.996\n279.56,2.967\n280.39,2.955\n281.22,2.938\n282.06,2.921\n282.91,2.909\n283.76,2.886\n284.61,2.875\n285.47,2.863\n286.34,2.858\n287.21,2.852\n288.09,2.840\n288.97,2.823\n289.86,2.800\n290.75,2.772\n291.65,2.749\n292.55,2.714\n293.46,2.691\n294.38,2.657\n295.30,2.622\n296.22,2.588\n297.16,2.571\n298.09,2.548\n299.04,2.536\n299.99,2.519\n300.94,2.496\n301.91,2.473\n302.88,2.438\n303.85,2.358\n304.83,2.312\n305.82,2.278\n306.81,2.232\n307.81,2.186\n308.82,2.140\n309.83,2.123\n310.85,2.105\n311.88,2.100\n312.91,2.088\n313.95,2.077\n315.00,2.059\n316.06,2.031\n317.12,1.962\n318.19,1.870\n319.26,1.761\n320.35,1.686\n321.44,1.634\n322.54,1.600\n323.64,1.560\n324.75,1.525\n325.88,1.508\n327.00,1.496\n328.14,1.496\n329.29,1.491\n330.44,1.468\n331.60,1.451\n332.77,1.439\n333.94,1.416\n335.13,1.410\n336.32,1.399\n337.53,1.387\n338.74,1.376\n339.96,1.376\n341.19,1.376\n342.42,1.370\n343.67,1.359\n344.93,1.370\n346.19,1.364\n347.46,1.347\n348.75,1.290\n350.04,1.244\n351.34,1.227\n352.66,1.198\n353.98,1.158\n355.31,1.135\n356.65,1.112\n358.01,1.071\n359.37,1.054\n360.74,1.020\n362.13,1.014\n363.52,1.008\n364.92,0.974\n366.34,0.928\n367.77,0.870\n369.21,0.807\n370.66,0.750\n372.12,0.721\n373.59,0.704\n375.07,0.623\n376.57,0.440\n378.08,0.250\n379.60,0.055\n##END=\n'