b'##TITLE=1,3-Cyclopentadiene\n##JCAMP-DX=4.24\n##DATA TYPE=UV/VIS SPECTRUM\n##ORIGIN=INSTITUTE OF ENERGY PROBLEMS OF CHEMICAL PHYSICS, RAS\n##OWNER=INEP CP RAS, NIST OSRD\nCollection (C) 2007 copyright by the U.S. Secretary of Commerce\non behalf of the United States of America. All rights reserved.\n##CAS REGISTRY NO=542-92-7\n##MOLFORM=C5H6\n##MP=- 85\n##BP=41\n##SOURCE REFERENCE=RAS UV No. 10963\n##$NIST SQUIB=1948POW/EDS510\n##$NIST SOURCE=TYUGLMTE\n##SPECTROMETER/DATA SYSTEM=Beckman quartz photoelectric spectrophotometer\n##XUNITS=Wavelength (nm)\n##YUNITS=Logarithm epsilon\n##XFACTOR=1.0\n##YFACTOR=1.0\n##FIRSTX=210.49\n##LASTX=272.64\n##FIRSTY=2.986\n##MAXX=272.64\n##MINX=210.49\n##MAXY=3.51\n##MINY=1.918\n##NPOINTS=201\n##$REF AUTHOR=Powell, J.S.; Edson, K.C.\n##$REF JOURNAL=Anal. Chem.\n##$REF VOLUME=20\n##$REF PAGE=510\n##$REF DATE=1948\n##XYPOINTS=(XY..XY)\n210.49,2.986\n210.57,2.988\n210.65,2.989\n210.74,2.990\n210.82,2.991\n210.90,2.991\n210.98,2.992\n211.06,2.994\n211.14,2.995\n211.23,2.996\n211.31,2.997\n211.39,2.998\n211.47,2.998\n211.55,2.999\n211.80,3.002\n212.13,3.006\n212.45,3.011\n212.78,3.018\n213.11,3.022\n213.43,3.027\n213.76,3.032\n214.09,3.037\n214.42,3.043\n214.74,3.050\n215.07,3.055\n215.40,3.061\n215.72,3.067\n216.05,3.072\n216.38,3.079\n216.71,3.085\n217.03,3.091\n217.36,3.099\n217.69,3.105\n218.01,3.111\n218.34,3.118\n218.67,3.125\n219.00,3.132\n219.32,3.138\n219.65,3.144\n219.98,3.153\n220.30,3.159\n220.63,3.167\n220.96,3.175\n221.29,3.185\n221.61,3.192\n221.94,3.200\n222.27,3.208\n222.59,3.219\n222.92,3.227\n223.25,3.235\n223.57,3.244\n223.90,3.255\n224.23,3.265\n224.56,3.274\n224.88,3.288\n225.21,3.299\n225.54,3.315\n225.86,3.325\n226.19,3.333\n226.52,3.345\n226.85,3.353\n227.17,3.360\n227.50,3.369\n227.83,3.375\n228.15,3.381\n228.48,3.388\n228.81,3.395\n229.14,3.400\n229.46,3.405\n229.79,3.409\n230.12,3.413\n230.44,3.420\n230.77,3.425\n231.10,3.430\n231.43,3.436\n231.75,3.441\n232.08,3.446\n232.41,3.451\n232.73,3.457\n233.06,3.461\n233.39,3.466\n233.71,3.470\n234.04,3.473\n234.37,3.480\n234.70,3.484\n235.02,3.488\n235.35,3.491\n235.68,3.495\n236.00,3.497\n236.33,3.499\n236.66,3.501\n236.99,3.503\n237.31,3.504\n237.64,3.505\n237.97,3.506\n238.29,3.507\n238.62,3.508\n238.95,3.509\n239.28,3.509\n239.60,3.510\n239.93,3.510\n240.26,3.510\n240.58,3.509\n240.91,3.508\n241.24,3.507\n241.57,3.504\n241.89,3.502\n242.22,3.499\n242.55,3.496\n242.87,3.493\n243.20,3.491\n243.53,3.488\n243.86,3.484\n244.18,3.481\n244.51,3.477\n244.84,3.474\n245.16,3.471\n245.49,3.467\n245.82,3.463\n246.14,3.458\n246.47,3.454\n246.80,3.450\n247.13,3.445\n247.45,3.439\n247.78,3.433\n248.11,3.428\n248.43,3.421\n248.76,3.413\n249.09,3.408\n249.42,3.399\n249.74,3.390\n250.07,3.382\n250.40,3.375\n250.72,3.360\n251.05,3.350\n251.38,3.340\n251.71,3.332\n252.03,3.321\n252.36,3.311\n252.69,3.303\n253.01,3.290\n253.34,3.281\n253.67,3.269\n254.00,3.256\n254.32,3.247\n254.65,3.233\n254.98,3.218\n255.30,3.207\n255.63,3.191\n255.96,3.179\n256.29,3.162\n256.61,3.143\n256.94,3.127\n257.27,3.107\n257.59,3.090\n257.92,3.066\n258.25,3.048\n258.57,3.025\n258.90,3.003\n259.23,2.986\n259.56,2.963\n259.88,2.940\n260.21,2.921\n260.54,2.892\n260.86,2.874\n261.19,2.853\n261.52,2.828\n261.85,2.801\n262.17,2.773\n262.50,2.747\n262.83,2.723\n263.15,2.694\n263.48,2.665\n263.81,2.644\n264.14,2.622\n264.46,2.594\n264.79,2.566\n265.12,2.544\n265.44,2.516\n265.77,2.498\n266.10,2.468\n266.43,2.444\n266.75,2.418\n267.08,2.390\n267.41,2.361\n267.73,2.330\n268.06,2.302\n268.39,2.272\n268.71,2.246\n269.04,2.219\n269.37,2.182\n269.70,2.151\n270.02,2.125\n270.33,2.105\n270.68,2.080\n271.00,2.050\n271.33,2.029\n271.66,2.006\n271.99,1.971\n272.24,1.949\n272.64,1.918\n##END=\n'