b'##TITLE=2-Chloro-3-nitropyridine\n##JCAMP-DX=4.24\n##DATA TYPE=UV/VIS SPECTRUM\n##ORIGIN=INSTITUTE OF ENERGY PROBLEMS OF CHEMICAL PHYSICS, RAS\n##OWNER=INEP CP RAS, NIST OSRD\nCollection (C) 2007 copyright by the U.S. Secretary of Commerce\non behalf of the United States of America. All rights reserved.\n##CAS REGISTRY NO=5470-18-8\n##MOLFORM=C5H3ClN2O2\n##SOURCE REFERENCE=RAS UV No. 14579\n##$NIST SQUIB=1968TOM/SKR1427\n##$NIST SOURCE=TYUGLMTE\n##SPECTROMETER/DATA SYSTEM=Unicam SP 700\n##XUNITS=Wavelength (nm)\n##YUNITS=Logarithm epsilon\n##XFACTOR=1.0\n##YFACTOR=1.0\n##FIRSTX=196.73\n##LASTX=362.45\n##FIRSTY=3.652\n##MAXX=362.45\n##MINX=196.73\n##MAXY=4.059\n##MINY=2.27\n##NPOINTS=126\n##$REF AUTHOR=Tomazik, P.; Skrowaczewska, Z.\n##$REF JOURNAL=Roczniki Chem.\n##$REF VOLUME=42\n##$REF PAGE=1427\n##$REF DATE=1968\n##XYPOINTS=(XY..XY)\n196.73,3.652\n197.34,3.677\n197.96,3.824\n198.57,3.958\n199.19,3.995\n199.82,4.020\n200.45,4.039\n201.08,4.047\n201.72,4.052\n202.36,4.059\n204.96,4.059\n206.96,4.047\n207.64,4.034\n208.32,4.020\n209.00,4.000\n209.69,3.973\n210.38,3.954\n211.08,3.939\n211.78,3.907\n212.49,3.878\n213.20,3.843\n213.91,3.816\n214.64,3.780\n215.36,3.743\n216.09,3.711\n216.83,3.694\n217.57,3.667\n218.31,3.650\n219.07,3.628\n219.82,3.615\n220.58,3.603\n221.35,3.593\n222.12,3.581\n222.90,3.571\n224.47,3.566\n225.26,3.562\n227.68,3.549\n228.50,3.544\n229.32,3.542\n230.15,3.539\n230.98,3.537\n233.53,3.530\n234.39,3.530\n237.00,3.520\n237.89,3.517\n238.78,3.513\n239.68,3.503\n240.58,3.495\n242.42,3.473\n243.34,3.451\n245.22,3.434\n246.16,3.417\n247.12,3.400\n248.08,3.395\n249.05,3.375\n251.01,3.326\n252.01,3.312\n253.01,3.304\n258.14,3.299\n260.25,3.312\n261.32,3.319\n262.39,3.324\n263.48,3.336\n264.57,3.348\n265.68,3.366\n266.79,3.366\n267.91,3.370\n269.04,3.378\n271.34,3.383\n272.50,3.383\n273.67,3.375\n274.85,3.370\n276.04,3.361\n277.24,3.353\n279.68,3.324\n280.91,3.304\n282.16,3.287\n283.41,3.265\n284.68,3.238\n285.96,3.216\n287.25,3.194\n288.55,3.118\n289.86,3.084\n291.19,3.062\n292.52,3.042\n293.87,3.008\n295.24,2.971\n296.61,2.949\n298.00,2.905\n299.40,2.861\n302.24,2.824\n303.68,2.777\n305.14,2.733\n306.61,2.731\n308.09,2.699\n309.59,2.677\n311.10,2.630\n312.63,2.611\n314.17,2.591\n315.73,2.569\n317.30,2.535\n318.89,2.520\n320.50,2.510\n322.12,2.513\n327.08,2.488\n328.21,2.488\n328.77,2.488\n329.34,2.486\n329.91,2.483\n330.48,2.483\n331.05,2.481\n331.62,2.481\n332.20,2.479\n332.78,2.479\n333.36,2.476\n333.94,2.474\n339.88,2.466\n342.32,2.447\n343.55,2.425\n345.41,2.403\n347.93,2.383\n351.13,2.363\n353.07,2.344\n357.03,2.307\n359.05,2.287\n362.45,2.270\n##END=\n'