b'##TITLE=Thiophene, 2-methyl-\n##JCAMP-DX=4.24\n##DATA TYPE=UV/VIS SPECTRUM\n##ORIGIN=INSTITUTE OF ENERGY PROBLEMS OF CHEMICAL PHYSICS, RAS\n##OWNER=INEP CP RAS, NIST OSRD\nCollection (C) 2007 copyright by the U.S. Secretary of Commerce\non behalf of the United States of America. All rights reserved.\n##CAS REGISTRY NO=554-14-3\n##MOLFORM=C5H6S\n##MP=- 63.4\n##BP=112.6\n##SOURCE REFERENCE=RAS UV No. 11097\n##$NIST SQUIB=1951CAP/DIE5240\n##$NIST SOURCE=TYUGLMTE\n##SPECTROMETER/DATA SYSTEM=Beckman DU\n##XUNITS=Wavelength (nm)\n##YUNITS=Logarithm epsilon\n##XFACTOR=1.0\n##YFACTOR=1.0\n##FIRSTX=214.91\n##LASTX=317.23\n##FIRSTY=3.553\n##MAXX=317.23\n##MINX=214.91\n##MAXY=3.869\n##MINY=2.029\n##NPOINTS=107\n##$REF AUTHOR=Capaigne, E.; Diedrich, J.L.\n##$REF JOURNAL=J. Am. Chem. Soc.\n##$REF VOLUME=73\n##$REF PAGE=5240\n##$REF DATE=1951\n##XYPOINTS=(XY..XY)\n214.91,3.553\n215.04,3.555\n215.17,3.557\n215.29,3.558\n215.43,3.560\n215.71,3.565\n215.95,3.571\n216.82,3.591\n217.69,3.610\n218.55,3.629\n219.42,3.647\n220.29,3.666\n221.16,3.683\n222.02,3.702\n222.89,3.721\n223.76,3.738\n224.62,3.755\n225.49,3.774\n226.36,3.788\n227.23,3.807\n228.09,3.822\n228.96,3.834\n229.83,3.847\n230.69,3.857\n231.56,3.862\n232.43,3.869\n233.29,3.869\n234.16,3.867\n235.03,3.867\n235.90,3.862\n236.76,3.855\n237.63,3.841\n238.50,3.829\n239.36,3.814\n240.23,3.797\n241.10,3.776\n241.97,3.750\n242.83,3.717\n243.70,3.671\n244.59,3.618\n245.43,3.560\n246.30,3.503\n247.12,3.444\n248.03,3.384\n248.86,3.334\n249.77,3.266\n250.66,3.187\n251.50,3.105\n252.37,3.026\n253.24,2.928\n253.73,2.873\n254.15,2.827\n254.45,2.796\n254.63,2.766\n254.80,2.740\n255.14,2.710\n255.89,2.637\n256.88,2.557\n257.75,2.495\n258.61,2.459\n259.48,2.431\n260.35,2.409\n261.21,2.391\n262.08,2.376\n262.95,2.362\n263.81,2.350\n264.68,2.340\n265.55,2.329\n266.42,2.319\n267.28,2.310\n268.15,2.302\n269.02,2.295\n271.10,2.279\n272.31,2.271\n273.53,2.262\n274.74,2.253\n276.13,2.245\n277.34,2.236\n278.73,2.228\n280.12,2.221\n281.50,2.212\n282.89,2.205\n284.28,2.198\n285.66,2.191\n287.05,2.184\n288.44,2.178\n289.83,2.169\n291.21,2.164\n292.60,2.157\n293.99,2.150\n295.38,2.143\n296.94,2.138\n298.32,2.133\n299.71,2.126\n301.10,2.121\n302.49,2.114\n303.87,2.109\n305.26,2.102\n306.65,2.095\n308.03,2.088\n309.42,2.081\n310.81,2.072\n312.20,2.066\n313.58,2.057\n314.80,2.048\n316.01,2.040\n317.23,2.029\n##END=\n'