b'##TITLE=Guanidine, nitro-\n##JCAMP-DX=4.24\n##DATA TYPE=UV/VIS SPECTRUM\n##ORIGIN=INSTITUTE OF ENERGY PROBLEMS OF CHEMICAL PHYSICS, RAS\n##OWNER=INEP CP RAS, NIST OSRD\nCollection (C) 2007 copyright by the U.S. Secretary of Commerce\non behalf of the United States of America. All rights reserved.\n##CAS REGISTRY NO=556-88-7\n##MOLFORM=CH4N4O2\n##MP=239 dec\n##SOURCE REFERENCE=RAS UV No. 11942\n##$NIST SQUIB=1951MCK/BRU746\n##$NIST SOURCE=TYUGLMTE\n##SPECTROMETER/DATA SYSTEM=Beckman DU\n##XUNITS=Wavelength (nm)\n##YUNITS=Logarithm epsilon\n##XFACTOR=1.0\n##YFACTOR=1.0\n##FIRSTX=206.83\n##LASTX=317.59\n##FIRSTY=3.678\n##MAXX=317.59\n##MINX=206.83\n##MAXY=4.185\n##MINY=2.419\n##NPOINTS=90\n##$REF AUTHOR=McKay, A.F.; Brunet, P.E.\n##$REF JOURNAL=Can. J. Chem.\n##$REF VOLUME=29\n##$REF PAGE=746\n##$REF DATE=1951\n##XYPOINTS=(XY..XY)\n206.83,3.678\n208.64,3.688\n210.25,3.703\n212.06,3.708\n213.87,3.708\n215.68,3.708\n217.49,3.703\n219.30,3.688\n220.90,3.662\n222.71,3.652\n224.32,3.632\n225.93,3.612\n227.54,3.591\n229.35,3.576\n231.16,3.566\n232.96,3.561\n234.77,3.566\n236.38,3.586\n237.99,3.607\n239.40,3.632\n240.80,3.657\n242.01,3.688\n243.22,3.723\n244.22,3.759\n245.23,3.799\n246.43,3.835\n247.44,3.876\n248.44,3.916\n249.65,3.947\n250.65,3.987\n251.86,4.018\n253.07,4.053\n254.27,4.089\n255.68,4.119\n257.09,4.150\n258.69,4.165\n260.30,4.185\n262.11,4.180\n263.92,4.180\n265.73,4.170\n267.34,4.155\n268.74,4.129\n269.95,4.099\n270.95,4.063\n271.76,4.023\n272.76,3.987\n273.37,3.947\n274.17,3.906\n275.18,3.865\n275.98,3.825\n276.78,3.784\n277.79,3.744\n278.59,3.703\n279.40,3.662\n280.40,3.627\n281.01,3.586\n281.81,3.546\n282.61,3.505\n283.22,3.464\n283.82,3.424\n284.62,3.383\n285.23,3.343\n286.03,3.302\n286.83,3.261\n287.44,3.221\n288.24,3.180\n289.05,3.140\n289.65,3.099\n290.45,3.058\n291.26,3.018\n292.06,2.977\n292.86,2.937\n294.07,2.901\n295.08,2.865\n296.28,2.830\n297.69,2.799\n298.89,2.764\n300.10,2.734\n301.51,2.703\n303.12,2.678\n304.72,2.652\n306.13,2.627\n307.54,2.602\n308.94,2.576\n310.55,2.551\n311.96,2.520\n313.37,2.495\n314.77,2.470\n316.18,2.444\n317.59,2.419\n##END=\n'