b'##TITLE=Methyl isothiocyanate\n##JCAMP-DX=4.24\n##DATA TYPE=UV/VIS SPECTRUM\n##ORIGIN=INSTITUTE OF ENERGY PROBLEMS OF CHEMICAL PHYSICS, RAS\n##OWNER=INEP CP RAS, NIST OSRD\nCollection (C) 2007 copyright by the U.S. Secretary of Commerce\non behalf of the United States of America. All rights reserved.\n##CAS REGISTRY NO=556-61-6\n##MOLFORM=C2H3NS\n##SOURCE REFERENCE=RAS UV No. 19964\n##$NIST SQUIB=1966PER/BRAb13/6\n##$NIST SOURCE=TYUGLMTE\n##SPECTROMETER/DATA SYSTEM=Zeiss PMQ II\n##XUNITS=Wavelength (nm)\n##YUNITS=Logarithm epsilon\n##XFACTOR=1.0\n##YFACTOR=1.0\n##FIRSTX=192.82\n##LASTX=278.11\n##FIRSTY=4.182\n##MAXX=278.11\n##MINX=192.82\n##MAXY=4.182\n##MINY=1.017\n##NPOINTS=146\n##$REF AUTHOR=Perkampus, H.-H.; Braunschweig, T.H.\n##$REF JOURNAL=UV atlas of organic compounds\n##$REF VOLUME=1\n##$REF PAGE=B13/6\n##$REF DATE=1966\n##XYPOINTS=(XY..XY)\n192.82,4.182\n192.90,4.180\n192.98,4.178\n193.06,4.176\n193.14,4.176\n193.22,4.174\n193.30,4.172\n193.37,4.170\n193.45,4.167\n193.53,4.167\n193.61,4.165\n193.69,4.163\n193.77,4.161\n193.85,4.161\n193.93,4.159\n194.01,4.157\n194.09,4.155\n194.17,4.155\n194.25,4.152\n194.33,4.150\n194.41,4.148\n194.49,4.146\n194.57,4.146\n194.71,4.141\n194.90,4.134\n195.28,4.115\n195.70,4.090\n196.19,4.063\n196.68,4.033\n197.17,4.001\n197.67,3.960\n198.12,3.921\n198.62,3.884\n199.17,3.838\n199.62,3.799\n200.19,3.746\n200.70,3.680\n201.21,3.607\n201.73,3.532\n202.25,3.448\n202.77,3.365\n203.29,3.275\n203.82,3.177\n204.35,3.070\n204.88,2.971\n205.42,2.892\n205.96,2.802\n206.50,2.725\n207.04,2.646\n207.59,2.571\n208.14,2.509\n208.69,2.457\n209.25,2.410\n209.81,2.380\n210.37,2.361\n210.93,2.348\n211.50,2.342\n212.07,2.342\n212.64,2.348\n213.22,2.359\n213.80,2.372\n214.38,2.387\n214.97,2.398\n215.56,2.410\n216.15,2.428\n216.75,2.440\n217.35,2.453\n217.92,2.466\n218.56,2.478\n219.21,2.489\n219.78,2.503\n220.40,2.513\n221.02,2.526\n221.64,2.543\n222.27,2.558\n222.90,2.575\n223.53,2.588\n224.17,2.605\n224.81,2.618\n225.45,2.633\n226.10,2.646\n226.76,2.659\n227.41,2.676\n228.07,2.689\n228.74,2.701\n229.40,2.716\n230.07,2.729\n230.75,2.740\n231.43,2.755\n232.11,2.768\n232.80,2.778\n233.49,2.791\n234.19,2.802\n234.89,2.811\n235.59,2.821\n236.30,2.830\n237.01,2.838\n237.73,2.843\n238.45,2.849\n239.18,2.853\n239.91,2.858\n240.64,2.860\n241.38,2.862\n242.12,2.862\n242.87,2.860\n243.62,2.853\n244.38,2.851\n245.14,2.841\n245.91,2.832\n246.68,2.821\n247.46,2.802\n248.24,2.787\n249.03,2.768\n249.82,2.746\n250.62,2.721\n251.42,2.695\n252.22,2.659\n253.04,2.627\n253.85,2.586\n254.68,2.543\n255.50,2.494\n256.34,2.449\n257.18,2.393\n258.02,2.329\n258.87,2.263\n259.73,2.186\n260.59,2.115\n261.45,2.044\n262.33,1.980\n263.20,1.907\n264.09,1.837\n264.98,1.755\n265.88,1.691\n266.78,1.616\n267.69,1.535\n268.60,1.464\n269.52,1.409\n270.45,1.349\n271.38,1.300\n272.32,1.246\n273.27,1.199\n274.22,1.152\n275.18,1.113\n276.15,1.088\n277.13,1.060\n278.11,1.017\n##END=\n'