b'##TITLE=2-amino-4(5H)-thiazolone\n##JCAMP-DX=4.24\n##DATA TYPE=UV/VIS SPECTRUM\n##ORIGIN=INSTITUTE OF ENERGY PROBLEMS OF CHEMICAL PHYSICS, RAS\n##OWNER=INEP CP RAS, NIST OSRD\nCollection (C) 2007 copyright by the U.S. Secretary of Commerce\non behalf of the United States of America. All rights reserved.\n##CAS REGISTRY NO=556-90-1\n##MOLFORM=C3H4N2OS\n##MP=241-243\n##SOURCE REFERENCE=RAS UV No. 22240\n##$NIST SQUIB=1978RAM/1327\n##$NIST SOURCE=TYUGLMTE\n##SPECTROMETER/DATA SYSTEM=SF-16\n##XUNITS=Wavelength (nm)\n##YUNITS=Logarithm epsilon\n##XFACTOR=1.0\n##YFACTOR=1.0\n##FIRSTX=194.883\n##LASTX=255.952\n##FIRSTY=3.605\n##MAXX=255.952\n##MINX=194.883\n##MAXY=4.29\n##MINY=3.55\n##NPOINTS=64\n##$REF AUTHOR=Ramsh, S.M.; et al.\n##$REF JOURNAL=Zhur. Organ. Khim.\n##$REF VOLUME=14\n##$REF PAGE=1327\n##$REF DATE=1978\n##XYPOINTS=(XY..XY)\n194.883,3.605\n195.472,3.585\n195.968,3.571\n196.968,3.555\n197.968,3.550\n198.968,3.553\n199.968,3.568\n200.863,3.592\n201.863,3.635\n202.863,3.676\n203.863,3.717\n204.863,3.758\n205.863,3.800\n206.863,3.845\n207.863,3.891\n208.863,3.939\n209.863,3.989\n210.863,4.039\n211.863,4.088\n212.863,4.132\n213.917,4.171\n214.917,4.211\n215.917,4.240\n216.917,4.261\n217.917,4.277\n218.917,4.287\n219.917,4.290\n220.917,4.284\n221.917,4.270\n222.917,4.246\n222.929,4.246\n223.929,4.218\n224.929,4.188\n225.929,4.155\n226.929,4.119\n227.929,4.079\n228.929,4.035\n229.929,3.986\n230.929,3.935\n231.929,3.886\n232.929,3.844\n233.951,3.814\n234.951,3.794\n235.951,3.785\n236.951,3.783\n237.951,3.788\n238.951,3.798\n239.951,3.812\n240.951,3.827\n241.952,3.838\n242.952,3.853\n243.952,3.868\n244.952,3.882\n245.952,3.894\n246.952,3.901\n247.952,3.904\n248.952,3.902\n249.952,3.894\n250.952,3.881\n251.952,3.863\n252.952,3.841\n253.952,3.815\n254.952,3.786\n255.952,3.757\n##END=\n'