b'##TITLE=1,2-Dithiolane\n##JCAMP-DX=4.24\n##DATA TYPE=UV/VIS SPECTRUM\n##ORIGIN=INSTITUTE OF ENERGY PROBLEMS OF CHEMICAL PHYSICS, RAS\n##OWNER=INEP CP RAS, NIST OSRD\nCollection (C) 2007 copyright by the U.S. Secretary of Commerce\non behalf of the United States of America. All rights reserved.\n##CAS REGISTRY NO=557-22-2\n##MOLFORM=C3H6S2\n##SOURCE REFERENCE=RAS UV No. 13185\n##$NIST SQUIB=1962BER/SCH1159\n##$NIST SOURCE=TYUGLMTE\n##SPECTROMETER/DATA SYSTEM=n.i.g.\n##XUNITS=Wavelength (nm)\n##YUNITS=Logarithm epsilon\n##XFACTOR=1.0\n##YFACTOR=1.0\n##FIRSTX=229.31\n##LASTX=373.71\n##FIRSTY=2.785\n##MAXX=373.71\n##MINX=229.31\n##MAXY=2.785\n##MINY=1.113\n##NPOINTS=72\n##$REF AUTHOR=Bergson, G.; Schotte, L.\n##$REF JOURNAL=Acta Chem. Scand.\n##$REF VOLUME=16\n##$REF PAGE=1159\n##$REF DATE=1962\n##XYPOINTS=(XY..XY)\n229.31,2.785\n229.74,2.781\n230.17,2.776\n230.60,2.772\n231.03,2.768\n231.47,2.736\n233.62,2.633\n235.78,2.557\n237.93,2.432\n240.09,2.343\n242.24,2.262\n244.40,2.173\n246.55,2.101\n248.71,2.021\n250.86,1.954\n253.02,1.914\n255.17,1.864\n257.33,1.838\n259.48,1.820\n261.64,1.779\n263.79,1.757\n265.95,1.730\n268.10,1.712\n270.26,1.699\n272.41,1.699\n274.57,1.703\n276.72,1.717\n278.88,1.721\n281.03,1.757\n283.19,1.806\n285.34,1.851\n287.50,1.887\n289.66,1.923\n291.81,1.963\n293.97,2.003\n296.12,2.034\n298.28,2.070\n300.43,2.106\n302.59,2.133\n304.74,2.155\n306.90,2.182\n309.05,2.200\n311.21,2.218\n313.36,2.222\n315.52,2.235\n317.67,2.240\n319.83,2.240\n321.98,2.235\n324.14,2.222\n326.29,2.213\n328.45,2.195\n330.60,2.168\n332.76,2.133\n334.91,2.101\n337.07,2.061\n339.22,2.021\n341.38,1.976\n343.53,1.936\n345.69,1.887\n347.84,1.829\n350.00,1.779\n352.16,1.717\n354.31,1.645\n356.47,1.587\n358.62,1.525\n360.78,1.462\n362.93,1.426\n365.09,1.373\n367.24,1.314\n369.40,1.243\n371.55,1.176\n373.71,1.113\n##END=\n'