b'##TITLE=6-(methylthio)-1,2,4-triazolo[3,4-b][1,3,4]thiadiazole-3(2H)-thione\n##JCAMP-DX=4.24\n##DATA TYPE=UV/VIS SPECTRUM\n##ORIGIN=INSTITUTE OF ENERGY PROBLEMS OF CHEMICAL PHYSICS, RAS\n##OWNER=INEP CP RAS, NIST OSRD\nCollection (C) 2007 copyright by the U.S. Secretary of Commerce\non behalf of the United States of America. All rights reserved.\n##CAS REGISTRY NO=55770-76-8\n##MOLFORM=C4H4N4S3\n##MP=241-242\n##SOURCE REFERENCE=RAS UV No. 23459\n##$NIST SQUIB=1975KOV/349\n##$NIST SOURCE=TYUGLMTE\n##SPECTROMETER/DATA SYSTEM=SF-4\n##XUNITS=Wavelength (nm)\n##YUNITS=Logarithm epsilon\n##XFACTOR=1.0\n##YFACTOR=1.0\n##FIRSTX=233.507\n##LASTX=348.735\n##FIRSTY=3.938\n##MAXX=348.735\n##MINX=233.507\n##MAXY=4.199\n##MINY=3.307\n##NPOINTS=120\n##$REF AUTHOR=Kovalyov, Ye.G.; et al.\n##$REF JOURNAL=Khim. Geterosikl. Soedin.\n##$REF PAGE=349\n##$REF DATE=1975\n##XYPOINTS=(XY..XY)\n233.507,3.938\n234.507,3.967\n235.507,3.995\n236.507,4.021\n237.507,4.045\n238.507,4.068\n239.507,4.089\n240.507,4.109\n241.507,4.126\n242.507,4.143\n243.507,4.157\n244.507,4.169\n245.507,4.180\n246.507,4.188\n247.507,4.194\n248.507,4.198\n249.507,4.199\n250.507,4.197\n251.507,4.193\n252.507,4.187\n253.507,4.177\n253.514,4.177\n254.514,4.167\n255.514,4.151\n256.514,4.130\n257.514,4.105\n258.514,4.080\n259.514,4.054\n260.552,4.029\n261.552,4.005\n262.552,3.980\n263.552,3.956\n264.552,3.932\n265.552,3.908\n266.552,3.885\n267.552,3.862\n268.552,3.840\n269.552,3.818\n270.552,3.796\n271.552,3.776\n272.552,3.755\n273.552,3.736\n274.552,3.717\n275.552,3.700\n275.560,3.700\n276.560,3.682\n277.560,3.664\n278.560,3.647\n279.560,3.631\n280.560,3.616\n281.560,3.604\n282.560,3.594\n283.560,3.586\n284.560,3.581\n285.560,3.578\n286.560,3.577\n287.560,3.579\n288.560,3.582\n289.560,3.587\n290.560,3.594\n291.560,3.602\n292.560,3.612\n293.560,3.623\n294.560,3.636\n295.560,3.649\n295.567,3.649\n296.567,3.666\n297.567,3.681\n298.567,3.695\n299.567,3.708\n300.567,3.721\n301.567,3.733\n302.567,3.745\n303.567,3.757\n304.567,3.769\n305.567,3.781\n306.567,3.792\n307.567,3.802\n308.567,3.812\n309.567,3.821\n310.567,3.828\n311.567,3.835\n312.567,3.840\n313.567,3.844\n314.567,3.846\n315.567,3.848\n316.567,3.848\n317.567,3.847\n318.567,3.845\n319.567,3.841\n320.567,3.838\n321.567,3.833\n322.567,3.828\n323.567,3.822\n324.467,3.815\n325.467,3.811\n326.467,3.804\n327.467,3.795\n328.467,3.783\n329.467,3.770\n330.467,3.755\n331.467,3.738\n332.467,3.721\n333.467,3.702\n334.467,3.683\n335.467,3.663\n336.467,3.642\n337.467,3.620\n338.467,3.597\n339.467,3.574\n340.467,3.550\n341.467,3.525\n342.467,3.498\n343.467,3.471\n344.467,3.443\n345.467,3.414\n346.467,3.384\n347.467,3.353\n348.467,3.321\n348.735,3.307\n##END=\n'