b'##TITLE=Ethanedial, dioxime\n##JCAMP-DX=4.24\n##DATA TYPE=UV/VIS SPECTRUM\n##ORIGIN=INSTITUTE OF ENERGY PROBLEMS OF CHEMICAL PHYSICS, RAS\n##OWNER=INEP CP RAS, NIST OSRD\nCollection (C) 2007 copyright by the U.S. Secretary of Commerce\non behalf of the United States of America. All rights reserved.\n##CAS REGISTRY NO=557-30-2\n##MOLFORM=C2H4N2O2\n##MP=178\n##SOURCE REFERENCE=RAS UV No. 19045\n##$NIST SQUIB=1969LAN21\n##$NIST SOURCE=TYUGLMTE\n##SPECTROMETER/DATA SYSTEM=Beckman DU\n##XUNITS=Wavelength (nm)\n##YUNITS=Logarithm epsilon\n##XFACTOR=1.0\n##YFACTOR=1.0\n##FIRSTX=205.2\n##LASTX=281.12\n##FIRSTY=4.048\n##MAXX=281.12\n##MINX=205.2\n##MAXY=4.048\n##MINY=1.269\n##NPOINTS=108\n##$REF AUTHOR=Lang (editor), L.\n##$REF JOURNAL=Absorption Spectra in the Ultraviolet and Visible Region\n##$REF VOLUME=12\n##$REF PAGE=21\n##$REF DATE=1969\n##XYPOINTS=(XY..XY)\n205.20,4.048\n206.03,4.024\n207.04,4.000\n207.88,3.973\n208.55,3.946\n209.39,3.923\n209.89,3.892\n210.39,3.865\n211.06,3.838\n211.73,3.811\n212.23,3.784\n212.91,3.756\n213.41,3.729\n214.08,3.702\n214.58,3.675\n215.42,3.651\n216.26,3.624\n217.26,3.604\n218.27,3.584\n219.27,3.563\n220.45,3.546\n221.79,3.533\n223.13,3.516\n224.13,3.496\n225.31,3.479\n226.31,3.458\n227.49,3.438\n228.49,3.418\n229.33,3.391\n230.34,3.367\n231.17,3.343\n232.01,3.319\n232.85,3.296\n233.69,3.272\n234.53,3.248\n235.20,3.221\n236.03,3.194\n236.70,3.167\n237.37,3.140\n238.04,3.113\n238.55,3.086\n239.39,3.058\n239.89,3.028\n240.56,3.001\n241.40,2.974\n241.90,2.947\n242.57,2.920\n243.07,2.892\n243.58,2.862\n244.08,2.835\n244.75,2.808\n245.25,2.777\n245.75,2.750\n246.26,2.723\n246.76,2.696\n247.26,2.669\n247.77,2.642\n248.44,2.615\n248.94,2.588\n249.61,2.560\n249.78,2.530\n250.61,2.506\n251.28,2.479\n251.96,2.452\n252.46,2.425\n253.13,2.398\n253.63,2.371\n254.30,2.344\n254.80,2.316\n255.64,2.289\n256.15,2.262\n256.98,2.235\n257.65,2.208\n258.16,2.181\n258.83,2.154\n259.50,2.127\n260.34,2.103\n260.84,2.076\n261.51,2.049\n262.18,2.022\n262.85,1.995\n263.52,1.967\n264.36,1.944\n265.03,1.917\n265.70,1.890\n266.37,1.862\n266.87,1.835\n267.54,1.808\n268.04,1.781\n268.88,1.754\n269.39,1.727\n270.06,1.700\n270.56,1.673\n271.23,1.646\n271.90,1.618\n272.74,1.591\n273.41,1.564\n274.08,1.537\n274.58,1.510\n275.42,1.483\n276.09,1.456\n276.76,1.429\n277.60,1.402\n278.27,1.375\n279.11,1.351\n279.61,1.324\n280.45,1.297\n281.12,1.269\n##END=\n'