b'##TITLE=3,6-bis(methylthio)-1,2,4-triazolo[3,4-b][1,3,4]thiadiazole\n##JCAMP-DX=4.24\n##DATA TYPE=UV/VIS SPECTRUM\n##ORIGIN=INSTITUTE OF ENERGY PROBLEMS OF CHEMICAL PHYSICS, RAS\n##OWNER=INEP CP RAS, NIST OSRD\nCollection (C) 2007 copyright by the U.S. Secretary of Commerce\non behalf of the United States of America. All rights reserved.\n##CAS REGISTRY NO=55770-77-9\n##MOLFORM=C5H6N4S3\n##MP=168-169\n##SOURCE REFERENCE=RAS UV No. 23458\n##$NIST SQUIB=1975KOV/349\n##$NIST SOURCE=TYUGLMTE\n##SPECTROMETER/DATA SYSTEM=SF-4\n##XUNITS=Wavelength (nm)\n##YUNITS=Logarithm epsilon\n##XFACTOR=1.0\n##YFACTOR=1.0\n##FIRSTX=227.57\n##LASTX=301.548\n##FIRSTY=3.924\n##MAXX=301.548\n##MINX=227.57\n##MAXY=4.126\n##MINY=3.365\n##NPOINTS=77\n##$REF AUTHOR=Kovalyov, Ye.G.; et al.\n##$REF JOURNAL=Khim. Geterosikl. Soedin.\n##$REF PAGE=349\n##$REF DATE=1975\n##XYPOINTS=(XY..XY)\n227.570,3.924\n228.570,3.904\n229.570,3.889\n230.570,3.879\n231.570,3.873\n232.570,3.869\n233.570,3.867\n234.570,3.866\n235.570,3.866\n236.570,3.866\n237.570,3.868\n238.570,3.870\n239.570,3.873\n240.570,3.877\n241.570,3.883\n242.570,3.890\n243.570,3.899\n244.570,3.911\n245.570,3.924\n246.570,3.939\n247.570,3.955\n248.570,3.972\n249.570,3.990\n250.570,4.007\n250.576,4.005\n251.576,4.023\n252.576,4.039\n253.576,4.054\n254.576,4.067\n255.576,4.080\n256.576,4.092\n257.576,4.102\n258.576,4.111\n259.576,4.119\n260.576,4.124\n261.576,4.126\n262.576,4.126\n263.576,4.123\n264.576,4.117\n265.576,4.108\n266.576,4.097\n267.502,4.084\n268.502,4.074\n269.502,4.061\n270.502,4.045\n271.502,4.027\n272.502,4.008\n273.502,3.989\n274.502,3.968\n275.502,3.947\n276.502,3.926\n277.502,3.904\n278.502,3.883\n279.502,3.862\n280.502,3.840\n281.502,3.818\n282.502,3.796\n283.502,3.773\n284.502,3.748\n284.548,3.752\n285.548,3.728\n286.548,3.703\n287.548,3.679\n288.548,3.655\n289.548,3.632\n290.548,3.609\n291.548,3.586\n292.548,3.563\n293.548,3.541\n294.548,3.518\n295.548,3.496\n296.548,3.474\n297.548,3.452\n298.548,3.430\n299.548,3.409\n300.548,3.387\n301.548,3.365\n##END=\n'