b'##TITLE=Carbon tetrabromide\n##JCAMP-DX=4.24\n##DATA TYPE=UV/VIS SPECTRUM\n##ORIGIN=INSTITUTE OF ENERGY PROBLEMS OF CHEMICAL PHYSICS, RAS\n##OWNER=INEP CP RAS, NIST OSRD\nCollection (C) 2007 copyright by the U.S. Secretary of Commerce\non behalf of the United States of America. All rights reserved.\n##CAS REGISTRY NO=558-13-4\n##MOLFORM=CBr4\n##MP=91.5-92\n##SOURCE REFERENCE=RAS UV No. 19862\n##$NIST SQUIB=1971DOR/BUTi/1\n##$NIST SOURCE=TYUGLMTE\n##SPECTROMETER/DATA SYSTEM=Zeiss PMQ II\n##XUNITS=Wavelength (nm)\n##YUNITS=Logarithm epsilon\n##XFACTOR=1.0\n##YFACTOR=1.0\n##FIRSTX=201.22\n##LASTX=324.27\n##FIRSTY=3.4\n##MAXX=324.27\n##MINX=201.22\n##MAXY=3.658\n##MINY=1.143\n##NPOINTS=159\n##$REF AUTHOR=Dorr, F.; Buttgereit, G.\n##$REF JOURNAL=UV atlas of organic compounds\n##$REF VOLUME=5\n##$REF PAGE=I/1\n##$REF DATE=1971\n##XYPOINTS=(XY..XY)\n201.22,3.400\n201.30,3.398\n201.39,3.396\n201.48,3.394\n201.57,3.392\n201.65,3.390\n201.74,3.387\n201.83,3.383\n201.92,3.381\n202.00,3.379\n202.09,3.377\n202.18,3.375\n202.27,3.373\n202.36,3.370\n202.44,3.366\n202.71,3.360\n203.24,3.341\n203.78,3.324\n204.32,3.307\n204.86,3.290\n205.40,3.273\n205.95,3.258\n206.50,3.243\n207.05,3.228\n207.61,3.215\n208.17,3.204\n208.73,3.198\n209.29,3.190\n209.86,3.187\n210.43,3.177\n211.01,3.181\n211.58,3.187\n212.17,3.200\n212.75,3.219\n213.34,3.239\n213.93,3.258\n214.52,3.279\n215.12,3.300\n215.72,3.326\n216.32,3.347\n216.93,3.370\n217.54,3.394\n218.15,3.415\n218.77,3.438\n219.39,3.458\n220.01,3.479\n220.64,3.500\n221.27,3.519\n221.91,3.538\n222.55,3.553\n223.19,3.575\n223.83,3.592\n224.48,3.606\n225.14,3.624\n225.79,3.638\n226.46,3.645\n227.12,3.653\n227.79,3.658\n228.46,3.658\n229.14,3.655\n229.82,3.649\n230.51,3.641\n231.20,3.626\n231.89,3.611\n232.59,3.592\n233.29,3.570\n233.99,3.545\n234.70,3.515\n235.42,3.487\n236.14,3.460\n236.86,3.432\n237.59,3.404\n238.32,3.375\n239.06,3.347\n239.80,3.317\n240.54,3.287\n241.30,3.258\n242.05,3.226\n242.81,3.202\n243.58,3.175\n244.35,3.151\n245.12,3.128\n245.90,3.107\n246.68,3.094\n247.47,3.077\n248.27,3.066\n249.07,3.060\n249.87,3.056\n250.68,3.051\n251.50,3.051\n252.32,3.053\n253.14,3.056\n253.98,3.056\n254.81,3.053\n255.66,3.051\n256.50,3.045\n257.36,3.036\n258.22,3.026\n259.08,3.013\n259.95,2.992\n260.83,2.971\n261.71,2.949\n262.60,2.919\n263.50,2.896\n264.40,2.873\n265.30,2.847\n266.22,2.824\n267.14,2.798\n268.06,2.771\n269.00,2.745\n269.93,2.724\n270.88,2.715\n271.83,2.685\n272.79,2.660\n273.76,2.632\n274.73,2.600\n275.71,2.575\n276.70,2.547\n277.69,2.522\n278.69,2.498\n279.70,2.471\n280.71,2.445\n281.74,2.417\n282.77,2.390\n283.80,2.364\n284.85,2.339\n285.90,2.307\n286.96,2.279\n288.03,2.256\n289.11,2.230\n290.19,2.207\n291.29,2.179\n292.39,2.158\n293.50,2.132\n294.62,2.109\n295.74,2.084\n296.88,2.058\n298.02,2.030\n299.18,2.001\n300.34,1.977\n301.51,1.950\n302.69,1.924\n303.88,1.896\n305.08,1.862\n306.29,1.828\n307.50,1.788\n308.73,1.743\n309.97,1.694\n311.22,1.647\n312.47,1.599\n313.74,1.545\n315.02,1.503\n316.31,1.456\n317.61,1.416\n318.92,1.362\n320.24,1.322\n321.57,1.271\n322.91,1.214\n324.27,1.143\n##END=\n'