b'##TITLE=2-Butanone, 3-methyl-\n##JCAMP-DX=4.24\n##DATA TYPE=UV/VIS SPECTRUM\n##ORIGIN=INSTITUTE OF ENERGY PROBLEMS OF CHEMICAL PHYSICS, RAS\n##OWNER=INEP CP RAS, NIST OSRD\nCollection (C) 2007 copyright by the U.S. Secretary of Commerce\non behalf of the United States of America. All rights reserved.\n##CAS REGISTRY NO=563-80-4\n##MOLFORM=C5H10O\n##MP=-92\n##BP=94.3\n##SOURCE REFERENCE=RAS UV No. 57\n##$NIST SQUIB=1947ROG2544-2548\n##$NIST SOURCE=TSGMTE\n##SPECTROMETER/DATA SYSTEM=Beckman spectrophotometer\n##XUNITS=Wavelength (nm)\n##YUNITS=Logarithm epsilon\n##XFACTOR=1.000000\n##YFACTOR=1.000000\n##FIRSTX=240.0000\n##LASTX=299.0000\n##FIRSTY=0.469999\n##MAXX=299\n##MINX=240\n##MAXY=1.34001\n##MINY=0.469999\n##NPOINTS=60\n##$REF AUTHOR=Rogers, M.T.\n##$REF TITLE=The electric moments and ultraviolet absorption spectras of some derivatives of cyclopropane and of ethylene oxide\n##$REF JOURNAL=J. Am. Chem. Soc.\n##$REF VOLUME=69\n##$REF PAGE=2544-2548\n##$REF DATE=1947\n##XYPOINTS=(XY..XY)\n240.0000,0.469999\n241.0000,0.469999\n242.0000,0.469999\n243.0000,0.469999\n244.0000,0.600003\n245.0000,0.600003\n246.0000,0.600003\n247.0000,0.690001\n248.0000,0.690001\n249.0000,0.769997\n250.0000,0.799341\n251.0000,0.839999\n252.0000,0.900001\n253.0000,0.900001\n254.0000,0.950000\n255.0000,1.000000\n256.0000,1.000000\n257.0000,1.040001\n258.0000,1.070001\n259.0000,1.070001\n260.0000,1.109983\n261.0000,1.139999\n262.0000,1.139999\n263.0000,1.170000\n264.0000,1.170000\n265.0000,1.199999\n266.0000,1.229999\n267.0000,1.229999\n268.0000,1.250000\n269.0000,1.270001\n270.0000,1.270003\n271.0000,1.299999\n272.0000,1.299999\n273.0000,1.320001\n274.0000,1.320001\n275.0000,1.340000\n276.0000,1.340000\n277.0000,1.340000\n278.0000,1.340000\n279.0000,1.340000\n280.0000,1.340008\n281.0000,1.340000\n282.0000,1.340000\n283.0000,1.320001\n284.0000,1.320001\n285.0000,1.320001\n286.0000,1.299999\n287.0000,1.270001\n288.0000,1.270001\n289.0000,1.250000\n290.0000,1.229989\n291.0000,1.199999\n292.0000,1.170000\n293.0000,1.139999\n294.0000,1.110000\n295.0000,1.070001\n296.0000,1.070001\n297.0000,1.040001\n298.0000,1.000000\n299.0000,0.950000\n##END=\n'