b'##TITLE=1-Butene, 2-methyl-\n##JCAMP-DX=4.24\n##DATA TYPE=UV/VIS SPECTRUM\n##ORIGIN=INSTITUTE OF ENERGY PROBLEMS OF CHEMICAL PHYSICS, RAS\n##OWNER=INEP CP RAS, NIST OSRD\nCollection (C) 2007 copyright by the U.S. Secretary of Commerce\non behalf of the United States of America. All rights reserved.\n##CAS REGISTRY NO=563-46-2\n##MOLFORM=C5H10\n##MP=-137.5\n##BP=31.2\n##SOURCE REFERENCE=RAS UV No. 1285\n##$NIST SQUIB=1958LOE/EBE345-347\n##$NIST SOURCE=TSGMTE\n##SPECTROMETER/DATA SYSTEM=Fluorite prism vacuum spectrograph\n##XUNITS=Wavelength (nm)\n##YUNITS=Logarithm epsilon\n##XFACTOR=1.000000\n##YFACTOR=1.000000\n##FIRSTX=208.8863\n##LASTX=157.5415\n##FIRSTY=2.14631\n##MAXX=208.886\n##MINX=157.542\n##MAXY=4.04513\n##MINY=2.14631\n##NPOINTS=169\n##$REF AUTHOR=Loeffler, B.B.; Eberlin, E.; Pickett, L.W.\n##$REF TITLE=Far ultraviolet absorption spectra of small ring hydrocarbons\n##$REF JOURNAL=J. Chem. Phys.\n##$REF VOLUME=28\n##$REF NUMBER=2\n##$REF PAGE=345-347\n##$REF DATE=1958\n##XYPOINTS=(XY..XY)\n208.8863,2.146314\n208.7258,2.173801\n208.5647,2.201254\n208.4033,2.228672\n208.2416,2.256060\n208.0796,2.283419\n207.9174,2.310749\n207.7552,2.338054\n207.5929,2.365335\n207.4306,2.392593\n207.2685,2.419832\n207.1065,2.447052\n206.9448,2.474255\n206.7834,2.501443\n206.6224,2.528618\n206.4618,2.555783\n206.3018,2.582937\n206.1424,2.610084\n205.9836,2.637226\n205.8256,2.664363\n205.6684,2.691498\n205.5120,2.718634\n205.3565,2.745770\n205.2021,2.772910\n205.0487,2.800056\n204.8964,2.827208\n204.7453,2.854370\n204.5955,2.881541\n204.4470,2.908726\n204.2998,2.935924\n204.1541,2.963140\n204.0099,2.990373\n203.8673,3.017626\n203.7263,3.044900\n203.5870,3.072198\n203.4494,3.099521\n203.3136,3.126872\n203.1798,3.154251\n203.0478,3.181661\n202.9179,3.209104\n202.7900,3.236581\n202.6642,3.264094\n202.5406,3.291646\n202.4192,3.319237\n202.4192,3.319237\n202.0896,3.359991\n201.7416,3.393697\n201.2103,3.425552\n201.2103,3.425552\n200.5899,3.420675\n199.9264,3.414749\n199.2864,3.416017\n199.2864,3.416017\n198.9092,3.438946\n198.5523,3.462326\n198.2132,3.486100\n197.8896,3.510206\n197.5789,3.534586\n197.2788,3.559179\n196.9869,3.583928\n196.7010,3.608771\n196.4188,3.633650\n196.1380,3.658504\n195.8563,3.683275\n195.5716,3.707903\n195.2817,3.732328\n194.9844,3.756491\n194.6776,3.780332\n194.3593,3.803791\n194.0272,3.826810\n193.6795,3.849328\n193.6795,3.849328\n193.1907,3.868239\n192.7023,3.886483\n192.2168,3.904202\n191.7365,3.921536\n191.2637,3.938625\n190.8008,3.955610\n190.3499,3.972631\n189.9133,3.989829\n189.9133,3.989829\n189.5038,4.013601\n189.0506,4.030657\n188.5549,4.041125\n188.0181,4.045133\n187.4414,4.042812\n186.8264,4.034290\n186.8264,4.034290\n186.6242,4.028047\n186.1935,4.024379\n185.6067,4.022755\n184.9358,4.022641\n184.2511,4.023507\n183.6210,4.024819\n183.1120,4.026046\n182.7895,4.026656\n182.7895,4.026656\n182.2023,4.015871\n181.6882,4.002800\n181.2148,3.987516\n180.7505,3.970091\n180.2644,3.950598\n179.7262,3.929110\n179.7262,3.929110\n179.2412,3.925828\n178.7756,3.917269\n178.3279,3.904449\n177.8970,3.888383\n177.4815,3.870085\n177.0801,3.850572\n176.6915,3.830858\n176.6915,3.830858\n175.9164,3.806066\n175.4787,3.793221\n175.2527,3.783738\n175.2527,3.783738\n174.5076,3.785090\n173.9702,3.786828\n173.5165,3.788492\n173.0257,3.789624\n172.3799,3.789763\n172.3799,3.789763\n171.9520,3.776888\n171.6428,3.767318\n171.3276,3.761996\n171.3276,3.761996\n171.3182,3.757370\n171.3066,3.752743\n171.2907,3.748113\n171.2907,3.748113\n170.6820,3.754266\n170.1621,3.766726\n169.6575,3.781051\n169.0969,3.792798\n169.0969,3.792798\n168.2772,3.788347\n167.7358,3.784583\n167.3297,3.781902\n166.9202,3.780703\n166.9202,3.780703\n166.4266,3.792539\n166.0336,3.803224\n165.7075,3.811451\n165.4155,3.815912\n165.1252,3.815301\n164.8048,3.808310\n164.4228,3.793632\n163.9486,3.769960\n163.9486,3.769960\n163.6286,3.771018\n163.3098,3.771929\n162.9923,3.772547\n162.9923,3.772547\n162.5824,3.791423\n162.2228,3.807510\n161.9011,3.820558\n161.6048,3.830316\n161.3217,3.836534\n161.0398,3.838962\n160.7474,3.837351\n160.4328,3.831449\n160.0845,3.821009\n159.6913,3.805778\n159.2423,3.785506\n159.2423,3.785506\n158.8289,3.787861\n158.3451,3.797336\n157.8852,3.812271\n157.5415,3.831009\n##END=\n'