b'##TITLE=Glycine\n##JCAMP-DX=4.24\n##DATA TYPE=UV/VIS SPECTRUM\n##ORIGIN=INSTITUTE OF ENERGY PROBLEMS OF CHEMICAL PHYSICS, RAS\n##OWNER=INEP CP RAS, NIST OSRD\nCollection (C) 2007 copyright by the U.S. Secretary of Commerce\non behalf of the United States of America. All rights reserved.\n##CAS REGISTRY NO=56-40-6\n##MOLFORM=C2H5NO2\n##MP=262 dec\n##SOURCE REFERENCE=RAS UV No. 11966\n##$NIST SQUIB=1949PES/ALS387\n##$NIST SOURCE=TYUGLMTE\n##SPECTROMETER/DATA SYSTEM=Quartz spectrograph\n##XUNITS=Wavelength (nm)\n##YUNITS=Logarithm epsilon\n##XFACTOR=1.0\n##YFACTOR=1.0\n##FIRSTX=213.73\n##LASTX=250\n##FIRSTY=1.451\n##MAXX=250\n##MINX=213.73\n##MAXY=1.451\n##MINY=-0.672\n##NPOINTS=38\n##$REF AUTHOR=Pestemer, M.; Alslev-Klinker, A.\n##$REF JOURNAL=Z. Electrochem\n##$REF VOLUME=53\n##$REF PAGE=387\n##$REF DATE=1949\n##XYPOINTS=(XY..XY)\n213.73,1.451\n213.99,1.446\n214.25,1.440\n214.51,1.435\n214.77,1.413\n215.80,1.385\n216.84,1.358\n217.88,1.320\n218.91,1.292\n219.95,1.259\n220.98,1.221\n223.06,1.133\n224.09,1.106\n225.13,1.056\n226.17,0.979\n227.20,0.963\n228.24,0.925\n229.27,0.903\n230.31,0.826\n231.35,0.798\n232.38,0.749\n233.42,0.689\n234.46,0.612\n235.49,0.579\n236.53,0.513\n237.56,0.431\n238.60,0.376\n239.64,0.244\n240.67,0.206\n241.71,0.140\n242.75,0.058\n243.78,-0.003\n244.82,-0.129\n245.85,-0.200\n246.89,-0.305\n247.93,-0.409\n248.96,-0.497\n250.00,-0.672\n##END=\n'