b'##TITLE=Alanine\n##JCAMP-DX=4.24\n##DATA TYPE=UV/VIS SPECTRUM\n##ORIGIN=INSTITUTE OF ENERGY PROBLEMS OF CHEMICAL PHYSICS, RAS\n##OWNER=INEP CP RAS, NIST OSRD\nCollection (C) 2007 copyright by the U.S. Secretary of Commerce\non behalf of the United States of America. All rights reserved.\n##CAS REGISTRY NO=56-41-7\n##MOLFORM=C3H7NO2\n##MP=300 dec.\n##SOURCE REFERENCE=RAS UV No. 17326\n##$NIST SQUIB=1988ABU/2609\n##$NIST SOURCE=TYUGLMTE\n##SPECTROMETER/DATA SYSTEM=unknown\n##XUNITS=Wavelength (nm)\n##YUNITS=Logarithm epsilon\n##XFACTOR=1.0\n##YFACTOR=1.0\n##FIRSTX=208.28\n##LASTX=358.5\n##FIRSTY=1.163\n##MAXX=358.5\n##MINX=208.28\n##MAXY=1.163\n##MINY=0.261\n##NPOINTS=331\n##$REF AUTHOR=Abu-Eittah, R.; et al.\n##$REF JOURNAL=Bull. Chem. Soc. Japan.\n##$REF VOLUME=61\n##$REF PAGE=2609\n##$REF DATE=1988\n##XYPOINTS=(XY..XY)\n208.28,1.163\n208.39,1.162\n208.50,1.162\n208.62,1.162\n208.73,1.161\n208.84,1.161\n208.96,1.161\n209.07,1.160\n209.18,1.160\n209.30,1.160\n209.41,1.159\n209.52,1.159\n209.64,1.159\n209.75,1.158\n209.86,1.158\n209.98,1.158\n210.09,1.157\n210.43,1.153\n210.77,1.148\n211.11,1.143\n211.45,1.137\n211.79,1.133\n212.13,1.127\n212.47,1.121\n212.81,1.116\n213.15,1.109\n213.37,1.105\n213.63,1.098\n213.83,1.093\n214.17,1.082\n214.51,1.068\n214.74,1.058\n215.08,1.046\n215.37,1.034\n215.72,1.021\n216.18,1.003\n216.55,0.987\n216.89,0.975\n217.23,0.967\n217.57,0.959\n217.91,0.950\n218.25,0.942\n218.59,0.931\n218.93,0.922\n219.27,0.912\n219.61,0.901\n219.95,0.895\n220.23,0.888\n220.63,0.881\n220.98,0.874\n221.32,0.867\n221.66,0.859\n221.96,0.849\n222.34,0.838\n222.68,0.831\n223.02,0.823\n223.36,0.817\n223.70,0.811\n224.04,0.804\n224.38,0.799\n224.72,0.793\n225.06,0.785\n225.40,0.780\n225.74,0.773\n226.08,0.767\n226.42,0.761\n226.76,0.756\n227.10,0.753\n227.44,0.748\n227.78,0.743\n228.12,0.739\n228.46,0.734\n228.80,0.730\n229.14,0.727\n229.48,0.723\n229.82,0.720\n230.16,0.715\n230.44,0.712\n230.84,0.708\n231.14,0.706\n231.52,0.704\n231.86,0.703\n232.20,0.702\n232.49,0.701\n232.88,0.701\n233.19,0.701\n233.57,0.700\n233.88,0.700\n234.20,0.700\n234.53,0.700\n234.94,0.700\n235.26,0.701\n235.60,0.702\n235.94,0.703\n236.20,0.704\n236.53,0.706\n236.96,0.709\n237.35,0.712\n237.64,0.714\n237.98,0.716\n238.32,0.719\n238.62,0.721\n238.95,0.724\n239.34,0.728\n239.68,0.731\n239.99,0.734\n240.41,0.737\n240.70,0.740\n241.04,0.743\n241.38,0.747\n241.72,0.749\n242.06,0.753\n242.40,0.757\n242.76,0.761\n243.08,0.764\n243.42,0.767\n243.76,0.771\n244.10,0.775\n244.44,0.779\n244.78,0.782\n245.12,0.785\n245.46,0.789\n245.80,0.794\n246.15,0.799\n246.49,0.804\n246.83,0.808\n247.15,0.813\n247.51,0.817\n247.85,0.823\n248.19,0.828\n248.52,0.833\n248.89,0.839\n249.21,0.844\n249.56,0.849\n249.89,0.854\n250.23,0.859\n250.57,0.865\n250.91,0.870\n251.18,0.874\n251.55,0.879\n251.93,0.884\n252.27,0.888\n252.61,0.892\n252.95,0.895\n253.29,0.899\n253.63,0.903\n253.97,0.906\n254.31,0.909\n254.65,0.912\n254.99,0.915\n255.33,0.918\n255.67,0.922\n256.01,0.924\n256.35,0.926\n256.69,0.928\n257.03,0.932\n257.37,0.934\n257.71,0.937\n258.05,0.940\n258.39,0.943\n258.73,0.946\n259.07,0.948\n259.41,0.950\n259.75,0.952\n260.09,0.953\n260.43,0.954\n260.77,0.955\n261.11,0.955\n261.45,0.954\n261.79,0.953\n262.13,0.952\n262.47,0.951\n262.81,0.949\n263.15,0.948\n263.49,0.945\n263.83,0.942\n264.17,0.939\n264.51,0.937\n264.85,0.935\n265.19,0.933\n265.53,0.930\n265.87,0.928\n266.21,0.926\n266.55,0.923\n266.89,0.921\n267.23,0.918\n267.57,0.916\n267.91,0.914\n268.25,0.909\n268.59,0.906\n268.93,0.903\n269.27,0.899\n269.61,0.895\n269.95,0.892\n270.29,0.888\n270.63,0.884\n270.97,0.880\n271.32,0.877\n271.66,0.873\n272.00,0.869\n272.34,0.866\n272.68,0.862\n273.02,0.858\n273.36,0.852\n273.70,0.847\n274.04,0.843\n274.38,0.838\n274.72,0.833\n275.06,0.828\n275.40,0.823\n275.74,0.818\n276.08,0.813\n276.42,0.806\n276.76,0.801\n277.10,0.795\n277.44,0.788\n277.78,0.781\n278.12,0.776\n278.46,0.771\n278.80,0.766\n279.14,0.762\n279.48,0.757\n279.82,0.753\n280.16,0.749\n280.50,0.743\n280.84,0.741\n281.18,0.736\n281.52,0.732\n281.86,0.727\n282.20,0.723\n282.54,0.720\n282.88,0.715\n283.22,0.710\n283.56,0.707\n283.90,0.702\n284.24,0.698\n284.58,0.694\n284.92,0.686\n285.26,0.680\n285.60,0.676\n285.94,0.670\n286.28,0.665\n286.62,0.660\n286.96,0.655\n287.30,0.649\n287.64,0.644\n287.98,0.639\n288.32,0.636\n288.66,0.630\n289.00,0.625\n289.34,0.620\n289.68,0.617\n290.02,0.611\n290.36,0.606\n290.70,0.601\n291.04,0.597\n291.38,0.591\n291.72,0.586\n292.06,0.580\n292.40,0.573\n292.74,0.571\n293.28,0.564\n293.65,0.559\n294.15,0.554\n294.78,0.547\n295.58,0.541\n296.26,0.532\n296.94,0.524\n297.62,0.513\n298.30,0.504\n299.09,0.495\n299.89,0.486\n300.68,0.478\n301.59,0.473\n302.38,0.464\n303.30,0.459\n304.31,0.452\n305.22,0.446\n306.24,0.442\n307.14,0.435\n308.06,0.430\n309.07,0.424\n309.98,0.417\n310.88,0.409\n311.90,0.403\n312.81,0.396\n313.83,0.392\n314.74,0.386\n315.65,0.380\n316.67,0.376\n317.71,0.371\n318.71,0.369\n319.58,0.364\n320.21,0.359\n321.46,0.353\n322.59,0.348\n323.72,0.343\n324.83,0.337\n325.85,0.335\n326.87,0.330\n327.89,0.328\n328.91,0.326\n329.98,0.323\n330.74,0.321\n331.97,0.316\n332.99,0.314\n334.01,0.312\n334.74,0.309\n336.05,0.307\n337.12,0.305\n338.25,0.303\n339.12,0.302\n340.14,0.300\n341.01,0.298\n342.18,0.297\n343.26,0.294\n344.14,0.291\n345.27,0.289\n346.15,0.287\n347.28,0.285\n348.30,0.285\n349.32,0.282\n350.34,0.280\n351.36,0.280\n352.41,0.277\n353.40,0.275\n354.42,0.272\n355.42,0.270\n356.29,0.268\n357.30,0.266\n358.50,0.261\n##END=\n'