b'##TITLE=L-Glutamine\n##JCAMP-DX=4.24\n##DATA TYPE=UV/VIS SPECTRUM\n##ORIGIN=INSTITUTE OF ENERGY PROBLEMS OF CHEMICAL PHYSICS, RAS\n##OWNER=INEP CP RAS, NIST OSRD\nCollection (C) 2007 copyright by the U.S. Secretary of Commerce\non behalf of the United States of America. All rights reserved.\n##CAS REGISTRY NO=56-85-9\n##MOLFORM=C5H10N2O3\n##MP=185-6 dec\n##SOURCE REFERENCE=RAS UV No. 12476\n##$NIST SQUIB=1952SAI/WAL285\n##$NIST SOURCE=TYUGLMTE\n##SPECTROMETER/DATA SYSTEM=Beckman DU\n##XUNITS=Wavelength (nm)\n##YUNITS=Logarithm epsilon\n##XFACTOR=1.0\n##YFACTOR=1.0\n##FIRSTX=200.23\n##LASTX=224.39\n##FIRSTY=3.017\n##MAXX=224.39\n##MINX=200.23\n##MAXY=3.017\n##MINY=2.016\n##NPOINTS=166\n##$REF AUTHOR=Saidel, L.J.; Waldman, S.\n##$REF JOURNAL=J. Biol. Chem.\n##$REF VOLUME=197\n##$REF PAGE=285\n##$REF DATE=1952\n##XYPOINTS=(XY..XY)\n200.23,3.017\n200.46,2.974\n200.81,2.918\n200.93,2.908\n201.04,2.897\n201.16,2.886\n201.27,2.875\n201.39,2.864\n201.51,2.852\n201.62,2.843\n201.74,2.833\n201.85,2.825\n201.97,2.816\n202.08,2.805\n202.20,2.796\n202.32,2.779\n202.43,2.770\n202.55,2.761\n202.66,2.754\n202.78,2.743\n202.90,2.735\n203.01,2.727\n203.12,2.718\n203.25,2.710\n203.34,2.703\n203.48,2.692\n203.59,2.686\n203.71,2.680\n204.03,2.660\n204.33,2.642\n204.52,2.630\n204.77,2.616\n205.07,2.600\n205.32,2.586\n205.44,2.579\n205.56,2.572\n205.87,2.557\n206.10,2.545\n206.45,2.529\n206.70,2.519\n206.95,2.510\n207.07,2.504\n207.48,2.489\n207.96,2.473\n208.31,2.461\n208.69,2.448\n208.92,2.440\n209.03,2.437\n209.18,2.433\n209.27,2.431\n209.38,2.427\n209.50,2.424\n209.61,2.421\n209.73,2.418\n209.85,2.414\n209.96,2.411\n210.08,2.408\n210.19,2.404\n210.50,2.396\n210.63,2.392\n210.81,2.387\n210.95,2.383\n211.14,2.377\n211.35,2.370\n211.70,2.357\n211.81,2.353\n211.93,2.350\n212.05,2.346\n212.16,2.342\n212.28,2.338\n212.47,2.333\n212.63,2.328\n212.74,2.326\n212.83,2.322\n212.95,2.319\n213.11,2.315\n213.20,2.313\n213.32,2.309\n213.44,2.305\n213.55,2.300\n213.63,2.299\n213.78,2.296\n213.90,2.293\n214.01,2.291\n214.13,2.287\n214.24,2.284\n214.37,2.281\n214.48,2.278\n214.57,2.275\n214.70,2.272\n214.83,2.269\n214.94,2.264\n215.05,2.262\n215.16,2.258\n215.25,2.256\n215.36,2.253\n215.50,2.249\n215.61,2.247\n215.73,2.244\n215.87,2.240\n215.96,2.237\n216.10,2.233\n216.22,2.230\n216.33,2.226\n216.45,2.223\n216.59,2.220\n216.71,2.217\n216.81,2.215\n216.89,2.213\n216.98,2.211\n217.09,2.208\n217.26,2.203\n217.35,2.200\n217.47,2.196\n217.61,2.192\n217.72,2.190\n217.82,2.187\n217.94,2.184\n218.07,2.181\n218.18,2.178\n218.30,2.175\n218.42,2.172\n218.53,2.170\n218.66,2.166\n218.76,2.164\n218.88,2.160\n219.02,2.156\n219.13,2.152\n219.26,2.148\n219.34,2.145\n219.46,2.142\n219.58,2.139\n219.69,2.136\n219.81,2.133\n219.92,2.130\n220.04,2.126\n220.17,2.122\n220.28,2.118\n220.38,2.115\n220.49,2.111\n220.62,2.106\n220.73,2.103\n220.85,2.100\n220.96,2.097\n221.05,2.095\n221.18,2.093\n221.31,2.091\n221.42,2.088\n221.54,2.086\n221.67,2.083\n221.77,2.080\n221.89,2.078\n222.01,2.076\n222.13,2.073\n222.23,2.071\n222.35,2.068\n222.47,2.064\n222.59,2.060\n222.70,2.056\n222.82,2.052\n222.93,2.048\n223.05,2.045\n223.17,2.041\n223.39,2.035\n223.84,2.024\n224.39,2.016\n##END=\n'