b'##TITLE=L-Glutamic acid\n##JCAMP-DX=4.24\n##DATA TYPE=UV/VIS SPECTRUM\n##ORIGIN=INSTITUTE OF ENERGY PROBLEMS OF CHEMICAL PHYSICS, RAS\n##OWNER=INEP CP RAS, NIST OSRD\nCollection (C) 2007 copyright by the U.S. Secretary of Commerce\non behalf of the United States of America. All rights reserved.\n##CAS REGISTRY NO=56-86-0\n##MOLFORM=C5H9NO4\n##MP=224 dec\n##BP=sub 175\n##SOURCE REFERENCE=RAS UV No. 11203\n##$NIST SQUIB=1952SAI/WAL285\n##$NIST SOURCE=TYUGLMTE\n##SPECTROMETER/DATA SYSTEM=Beckman DU\n##XUNITS=Wavelength (nm)\n##YUNITS=Logarithm epsilon\n##XFACTOR=1.0\n##YFACTOR=1.0\n##FIRSTX=200.41\n##LASTX=222.03\n##FIRSTY=2.511\n##MAXX=222.03\n##MINX=200.41\n##MAXY=2.511\n##MINY=1.499\n##NPOINTS=40\n##$REF AUTHOR=Saidel, L.J.; Waldman, S.\n##$REF JOURNAL=J. Biol. Chem.\n##$REF VOLUME=197\n##$REF PAGE=285\n##$REF DATE=1952\n##XYPOINTS=(XY..XY)\n200.41,2.511\n200.54,2.505\n200.69,2.500\n200.85,2.494\n201.12,2.483\n201.49,2.466\n202.02,2.445\n202.57,2.424\n203.11,2.402\n203.65,2.380\n204.19,2.357\n204.70,2.333\n205.25,2.311\n205.81,2.287\n206.35,2.264\n207.43,2.215\n207.97,2.187\n208.51,2.162\n209.53,2.115\n210.13,2.087\n210.68,2.064\n211.22,2.039\n211.76,2.014\n213.37,1.939\n214.01,1.908\n214.57,1.882\n215.17,1.857\n215.62,1.838\n216.08,1.815\n216.62,1.786\n217.23,1.756\n217.76,1.733\n218.24,1.707\n218.78,1.685\n219.33,1.654\n219.93,1.623\n220.42,1.595\n220.91,1.565\n221.49,1.527\n222.03,1.499\n##END=\n'