b'##TITLE=Urea\n##JCAMP-DX=4.24\n##DATA TYPE=UV/VIS SPECTRUM\n##ORIGIN=INSTITUTE OF ENERGY PROBLEMS OF CHEMICAL PHYSICS, RAS\n##OWNER=INEP CP RAS, NIST OSRD\nCollection (C) 2007 copyright by the U.S. Secretary of Commerce\non behalf of the United States of America. All rights reserved.\n##CAS REGISTRY NO=57-13-6\n##MOLFORM=CH4N2O\n##MP=132.7\n##BP=dec\n##SOURCE REFERENCE=RAS UV No. 9317\n##$NIST SQUIB=1947KLO/ASK801\n##$NIST SOURCE=TYUGLMTE\n##SPECTROMETER/DATA SYSTEM=Beckman quartz spectrophotometer\n##XUNITS=Wavelength (nm)\n##YUNITS=Logarithm epsilon\n##XFACTOR=1.0\n##YFACTOR=1.0\n##FIRSTX=221.9\n##LASTX=248.11\n##FIRSTY=3.191\n##MAXX=248.11\n##MINX=221.9\n##MAXY=3.191\n##MINY=2.789\n##NPOINTS=61\n##$REF AUTHOR=Klotz, I.M.; Askounts, T.\n##$REF JOURNAL=J. Am. Chem. Soc.\n##$REF VOLUME=69\n##$REF PAGE=801\n##$REF DATE=1947\n##XYPOINTS=(XY..XY)\n221.90,3.191\n222.12,3.185\n222.41,3.178\n222.63,3.171\n222.85,3.164\n223.08,3.157\n223.30,3.149\n223.52,3.141\n223.74,3.134\n223.96,3.127\n224.25,3.119\n224.54,3.111\n224.76,3.103\n225.06,3.095\n225.28,3.087\n225.50,3.079\n225.79,3.070\n226.01,3.062\n226.31,3.053\n226.60,3.044\n226.82,3.035\n227.11,3.025\n227.41,3.015\n227.70,3.006\n227.99,2.996\n228.29,2.985\n228.65,2.976\n229.02,2.965\n229.39,2.954\n229.76,2.943\n230.12,2.933\n230.49,2.921\n230.93,2.910\n231.30,2.899\n231.74,2.889\n232.18,2.879\n232.77,2.871\n233.35,2.864\n233.87,2.856\n234.45,2.847\n235.04,2.838\n235.63,2.828\n236.22,2.821\n236.88,2.817\n237.54,2.813\n238.20,2.811\n238.86,2.807\n239.52,2.803\n240.18,2.801\n240.84,2.799\n241.50,2.797\n242.16,2.793\n242.82,2.793\n243.48,2.791\n244.14,2.791\n244.80,2.791\n245.46,2.789\n246.13,2.789\n246.79,2.789\n247.45,2.789\n248.11,2.791\n##END=\n'