b'##TITLE=(E)-2-[(2-chloroethyl)thio]propane\n##JCAMP-DX=4.24\n##DATA TYPE=UV/VIS SPECTRUM\n##ORIGIN=INSTITUTE OF ENERGY PROBLEMS OF CHEMICAL PHYSICS, RAS\n##OWNER=INEP CP RAS, NIST OSRD\nCollection (C) 2007 copyright by the U.S. Secretary of Commerce\non behalf of the United States of America. All rights reserved.\n##CAS REGISTRY NO=57295-88-2\n##MOLFORM=C5H9ClS\n##SOURCE REFERENCE=RAS UV No. 23362\n##$NIST SQUIB=1975TUR/PRO2099\n##$NIST SOURCE=TYUGLMTE\n##SPECTROMETER/DATA SYSTEM=Unicam SP 700\n##XUNITS=Wavelength (nm)\n##YUNITS=Logarithm epsilon\n##XFACTOR=1.0\n##YFACTOR=1.0\n##FIRSTX=202.5\n##LASTX=290\n##FIRSTY=3.719\n##MAXX=290\n##MINX=202.5\n##MAXY=3.767\n##MINY=2.42\n##NPOINTS=89\n##$REF AUTHOR=Turecek, F.; Prochazka, M.\n##$REF JOURNAL=Coll. Czech.Chem. Comm.\n##$REF VOLUME=40\n##$REF PAGE=2099\n##$REF DATE=1975\n##XYPOINTS=(XY..XY)\n202.500,3.719\n203.500,3.705\n204.500,3.689\n205.500,3.671\n206.500,3.652\n207.500,3.633\n208.500,3.614\n209.500,3.596\n210.500,3.577\n211.500,3.559\n212.500,3.541\n213.500,3.522\n214.500,3.503\n215.500,3.484\n216.500,3.464\n217.500,3.444\n218.500,3.424\n219.500,3.405\n220.500,3.387\n221.500,3.371\n222.500,3.357\n223.500,3.347\n224.500,3.341\n225.500,3.339\n226.500,3.342\n227.363,3.349\n228.363,3.357\n229.363,3.364\n230.363,3.369\n231.363,3.375\n232.363,3.382\n233.363,3.391\n234.363,3.401\n235.363,3.413\n236.363,3.426\n237.363,3.440\n238.363,3.454\n239.363,3.469\n240.363,3.483\n241.363,3.496\n242.363,3.508\n243.363,3.520\n244.363,3.530\n245.363,3.539\n246.363,3.548\n247.363,3.556\n248.363,3.564\n249.363,3.572\n250.363,3.581\n251.363,3.591\n252.363,3.602\n253.363,3.614\n254.286,3.630\n255.286,3.635\n256.286,3.648\n257.286,3.663\n258.286,3.680\n259.286,3.696\n260.286,3.711\n261.286,3.724\n262.286,3.736\n263.286,3.746\n264.286,3.755\n265.286,3.762\n266.286,3.766\n267.286,3.767\n268.286,3.761\n269.286,3.746\n270.286,3.718\n271.286,3.671\n272.280,3.591\n273.280,3.497\n274.280,3.409\n275.280,3.327\n276.280,3.250\n277.280,3.178\n278.280,3.110\n279.280,3.046\n280.280,2.985\n281.280,2.926\n282.280,2.868\n283.280,2.812\n284.280,2.756\n285.280,2.701\n286.280,2.644\n287.280,2.587\n288.280,2.528\n289.280,2.467\n290.000,2.420\n##END=\n'