b'##TITLE=(E)-1-chloro-2-(ethylthio)ethene\n##JCAMP-DX=4.24\n##DATA TYPE=UV/VIS SPECTRUM\n##ORIGIN=INSTITUTE OF ENERGY PROBLEMS OF CHEMICAL PHYSICS, RAS\n##OWNER=INEP CP RAS, NIST OSRD\nCollection (C) 2007 copyright by the U.S. Secretary of Commerce\non behalf of the United States of America. All rights reserved.\n##CAS REGISTRY NO=57466-64-5\n##MOLFORM=C4H7ClS\n##SOURCE REFERENCE=RAS UV No. 23359\n##$NIST SQUIB=1975TUR/PRO2099\n##$NIST SOURCE=TYUGLMTE\n##SPECTROMETER/DATA SYSTEM=Unicam SP 700\n##XUNITS=Wavelength (nm)\n##YUNITS=Logarithm epsilon\n##XFACTOR=1.0\n##YFACTOR=1.0\n##FIRSTX=200.49\n##LASTX=226.548\n##FIRSTY=3.584\n##MAXX=226.548\n##MINX=200.49\n##MAXY=3.759\n##MINY=2.773\n##NPOINTS=55\n##$REF AUTHOR=Turecek, F.; Prochazka, M.\n##$REF JOURNAL=Coll. Czech. Chem. Comm.\n##$REF VOLUME=40\n##$REF PAGE=2099\n##$REF DATE=1975\n##XYPOINTS=(XY..XY)\n200.490,3.584\n200.990,3.570\n201.490,3.548\n201.990,3.522\n202.490,3.493\n202.990,3.464\n203.490,3.437\n203.990,3.412\n204.490,3.391\n204.990,3.375\n205.490,3.363\n205.990,3.357\n206.490,3.356\n206.990,3.360\n207.490,3.369\n207.990,3.383\n208.490,3.402\n208.990,3.424\n209.486,3.449\n209.986,3.475\n210.486,3.512\n210.986,3.553\n211.486,3.593\n211.986,3.628\n212.486,3.655\n212.986,3.674\n213.486,3.683\n213.986,3.683\n214.486,3.676\n214.986,3.664\n215.486,3.650\n215.986,3.638\n216.486,3.632\n216.986,3.637\n216.988,3.639\n217.488,3.648\n217.988,3.671\n218.488,3.701\n218.988,3.729\n219.488,3.750\n219.988,3.759\n220.488,3.751\n220.988,3.722\n221.488,3.670\n221.548,3.660\n222.048,3.588\n222.548,3.483\n223.048,3.364\n223.548,3.247\n224.048,3.141\n224.548,3.051\n225.048,2.978\n225.548,2.915\n226.048,2.852\n226.548,2.773\n##END=\n'