b'##TITLE=2,3-Butanedione, monooxime\n##JCAMP-DX=4.24\n##DATA TYPE=UV/VIS SPECTRUM\n##ORIGIN=INSTITUTE OF ENERGY PROBLEMS OF CHEMICAL PHYSICS, RAS\n##OWNER=INEP CP RAS, NIST OSRD\nCollection (C) 2007 copyright by the U.S. Secretary of Commerce\non behalf of the United States of America. All rights reserved.\n##CAS REGISTRY NO=57-71-6\n##MOLFORM=C4H7NO2\n##MP=72.5\n##SOURCE REFERENCE=RAS UV No. 19690\n##$NIST SQUIB=1962LAN53\n##$NIST SOURCE=TYUGLMTE\n##SPECTROMETER/DATA SYSTEM=Beckman DU\n##XUNITS=Wavelength (nm)\n##YUNITS=Logarithm epsilon\n##XFACTOR=1.0\n##YFACTOR=1.0\n##FIRSTX=215.05\n##LASTX=314.2\n##FIRSTY=4.709\n##MAXX=314.2\n##MINX=215.05\n##MAXY=4.923\n##MINY=2.784\n##NPOINTS=107\n##$REF AUTHOR=Lang (editor), L.\n##$REF JOURNAL=Absorption Spectra in the Ultraviolet and Visible Region\n##$REF VOLUME=3\n##$REF PAGE=53\n##$REF DATE=1962\n##XYPOINTS=(XY..XY)\n215.05,4.709\n215.88,4.732\n216.89,4.756\n217.89,4.779\n218.73,4.802\n219.90,4.823\n220.90,4.846\n222.07,4.866\n223.24,4.883\n224.58,4.900\n225.92,4.913\n227.25,4.923\n228.76,4.920\n230.26,4.920\n231.60,4.906\n232.94,4.893\n233.94,4.873\n234.78,4.849\n235.78,4.829\n236.62,4.806\n237.45,4.782\n238.29,4.759\n239.13,4.732\n239.96,4.705\n240.80,4.682\n241.47,4.655\n242.30,4.632\n242.97,4.605\n243.81,4.582\n244.48,4.555\n245.15,4.528\n245.98,4.505\n246.65,4.478\n247.32,4.451\n247.82,4.424\n248.49,4.397\n249.16,4.371\n249.83,4.344\n250.33,4.317\n251.16,4.290\n251.83,4.264\n252.50,4.237\n253.00,4.210\n253.84,4.183\n254.51,4.156\n255.18,4.130\n256.01,4.103\n256.68,4.076\n257.52,4.049\n258.35,4.022\n259.02,3.996\n259.69,3.969\n260.53,3.942\n261.20,3.915\n262.03,3.892\n262.87,3.868\n263.70,3.845\n264.54,3.822\n265.38,3.795\n266.21,3.771\n267.05,3.745\n267.88,3.718\n268.72,3.691\n269.56,3.668\n270.39,3.644\n271.23,3.621\n272.07,3.597\n272.90,3.574\n273.74,3.550\n274.57,3.527\n275.58,3.504\n276.58,3.480\n277.42,3.457\n278.42,3.433\n279.42,3.410\n280.43,3.390\n281.26,3.366\n282.26,3.343\n283.27,3.319\n284.10,3.296\n285.11,3.276\n286.11,3.253\n287.11,3.232\n288.12,3.212\n289.12,3.192\n290.12,3.172\n291.29,3.152\n292.30,3.132\n293.30,3.112\n294.30,3.088\n295.31,3.068\n296.48,3.052\n297.48,3.032\n298.48,3.011\n299.65,2.991\n300.82,2.971\n301.99,2.951\n303.17,2.934\n304.34,2.918\n305.34,2.898\n306.51,2.881\n307.68,2.864\n309.02,2.847\n310.19,2.831\n311.53,2.814\n312.86,2.797\n314.20,2.784\n##END=\n'