b'##TITLE=1,2-Butadiene\n##JCAMP-DX=4.24\n##DATA TYPE=UV/VIS SPECTRUM\n##ORIGIN=INSTITUTE OF ENERGY PROBLEMS OF CHEMICAL PHYSICS, RAS\n##OWNER=INEP CP RAS, NIST OSRD\nCollection (C) 2007 copyright by the U.S. Secretary of Commerce\non behalf of the United States of America. All rights reserved.\n##CAS REGISTRY NO=590-19-2\n##MOLFORM=C4H6\n##MP=-136.2\n##BP=10.9\n##SOURCE REFERENCE=RAS UV No. 2454\n##$NIST SQUIB=1955JON/TAY228-237\n##$NIST SOURCE=TSGMTE\n##SPECTROMETER/DATA SYSTEM=Beckman DU\n##XUNITS=Wavelength (nm)\n##YUNITS=Logarithm epsilon\n##XFACTOR=1.000000\n##YFACTOR=1.000000\n##FIRSTX=170.0000\n##LASTX=199.0000\n##FIRSTY=4.17\n##MAXX=199\n##MINX=170\n##MAXY=4.26\n##MINY=2.85\n##NPOINTS=30\n##$REF AUTHOR=Jones, L.C., Jr.; Taylor, L.W.\n##$REF TITLE=Far ultraviolet absorption spectra of unsaturated and aromatic hydrocarbons\n##$REF JOURNAL=Anal. Chem.\n##$REF VOLUME=27\n##$REF NUMBER=2\n##$REF PAGE=228-237\n##$REF DATE=1955\n##XYPOINTS=(XY..XY)\n170.0000,4.169998\n171.0000,4.150000\n172.0000,4.160000\n173.0000,4.170000\n174.0000,4.200000\n175.0000,4.230000\n176.0000,4.250000\n177.0000,4.260000\n178.0000,4.250000\n179.0000,4.160000\n180.0000,4.019988\n181.0000,3.890000\n182.0000,3.760000\n183.0000,3.640000\n184.0000,3.560000\n185.0000,3.540000\n186.0000,3.520000\n187.0000,3.520000\n188.0000,3.490000\n189.0000,3.430000\n190.0000,3.369995\n191.0000,3.310000\n192.0000,3.250000\n193.0000,3.210000\n194.0000,3.140000\n195.0000,3.080000\n196.0000,3.020000\n197.0000,2.960000\n198.0000,2.910000\n199.0000,2.850000\n##END=\n'