b'##TITLE=Ethene, 1,2-dibromo-, (E)-\n##JCAMP-DX=4.24\n##DATA TYPE=UV/VIS SPECTRUM\n##ORIGIN=INSTITUTE OF ENERGY PROBLEMS OF CHEMICAL PHYSICS, RAS\n##OWNER=INEP CP RAS, NIST OSRD\nCollection (C) 2007 copyright by the U.S. Secretary of Commerce\non behalf of the United States of America. All rights reserved.\n##CAS REGISTRY NO=590-12-5\n##MOLFORM=C2H2Br2\n##BP=107-110\n##SOURCE REFERENCE=RAS UV No. 19924\n##$NIST SQUIB=1966PER/BRAa1/19\n##$NIST SOURCE=TYUGLMTE\n##SPECTROMETER/DATA SYSTEM=Zeiss PMQ II\n##XUNITS=Wavelength (nm)\n##YUNITS=Logarithm epsilon\n##XFACTOR=1.0\n##YFACTOR=1.0\n##FIRSTX=182.03\n##LASTX=269.94\n##FIRSTY=3.582\n##MAXX=269.94\n##MINX=182.03\n##MAXY=3.951\n##MINY=1.009\n##NPOINTS=180\n##$REF AUTHOR=Perkampus, H.-H.; Braunschweig, T.H.\n##$REF JOURNAL=UV atlas of organic compounds\n##$REF VOLUME=1\n##$REF PAGE=A1/19\n##$REF DATE=1966\n##XYPOINTS=(XY..XY)\n182.03,3.582\n182.10,3.584\n182.17,3.586\n182.24,3.588\n182.31,3.588\n182.38,3.590\n182.45,3.593\n182.53,3.593\n182.60,3.595\n182.67,3.597\n182.74,3.597\n182.81,3.599\n182.88,3.601\n182.95,3.601\n183.09,3.601\n183.45,3.605\n183.81,3.610\n184.17,3.612\n184.53,3.614\n184.90,3.616\n185.26,3.616\n185.63,3.616\n186.00,3.616\n186.36,3.616\n186.74,3.616\n187.11,3.616\n187.48,3.616\n187.86,3.614\n188.23,3.614\n188.61,3.614\n188.99,3.616\n189.37,3.623\n189.75,3.627\n190.14,3.633\n190.52,3.637\n190.91,3.646\n191.30,3.655\n191.69,3.659\n192.08,3.670\n192.48,3.678\n192.87,3.689\n193.27,3.697\n193.67,3.708\n194.07,3.719\n194.47,3.727\n194.87,3.734\n195.28,3.742\n195.69,3.753\n196.09,3.763\n196.51,3.772\n196.92,3.783\n197.33,3.791\n197.75,3.802\n198.16,3.810\n198.58,3.821\n199.00,3.832\n199.43,3.840\n199.85,3.845\n200.28,3.853\n200.71,3.855\n201.14,3.862\n201.57,3.870\n202.00,3.875\n202.44,3.885\n202.87,3.894\n203.31,3.904\n203.75,3.915\n204.20,3.924\n204.64,3.928\n205.09,3.934\n205.54,3.936\n205.99,3.936\n206.44,3.936\n206.90,3.941\n207.35,3.943\n207.81,3.945\n208.27,3.947\n208.74,3.949\n209.20,3.951\n209.67,3.951\n210.14,3.949\n210.61,3.947\n211.08,3.945\n211.56,3.939\n212.04,3.932\n212.52,3.922\n213.00,3.904\n213.48,3.887\n213.97,3.870\n214.46,3.847\n214.95,3.821\n215.44,3.800\n215.94,3.772\n216.43,3.749\n216.93,3.727\n217.44,3.708\n217.94,3.689\n218.45,3.672\n218.96,3.646\n219.47,3.620\n219.98,3.590\n220.50,3.558\n221.02,3.520\n221.54,3.479\n222.06,3.432\n222.59,3.385\n223.12,3.343\n223.65,3.294\n224.19,3.242\n224.72,3.191\n225.26,3.146\n225.80,3.097\n226.35,3.061\n226.89,3.025\n227.44,2.993\n228.00,2.965\n228.55,2.943\n229.11,2.922\n229.67,2.905\n230.23,2.890\n230.80,2.873\n231.37,2.858\n231.94,2.843\n232.51,2.832\n233.09,2.822\n233.67,2.811\n234.25,2.802\n234.84,2.792\n235.43,2.783\n236.02,2.773\n236.61,2.762\n237.21,2.751\n237.81,2.738\n238.42,2.728\n239.02,2.717\n239.63,2.706\n240.25,2.694\n240.86,2.676\n241.48,2.664\n242.10,2.644\n242.73,2.632\n243.36,2.612\n243.99,2.593\n244.63,2.574\n245.27,2.555\n245.91,2.533\n246.55,2.512\n247.20,2.491\n247.86,2.465\n248.51,2.439\n249.17,2.414\n249.83,2.380\n250.50,2.356\n251.17,2.326\n251.84,2.296\n252.52,2.264\n253.20,2.228\n253.89,2.194\n254.58,2.155\n255.27,2.115\n255.96,2.072\n256.66,2.032\n257.37,1.972\n258.07,1.920\n258.78,1.876\n259.50,1.824\n260.22,1.771\n260.94,1.724\n261.67,1.668\n262.40,1.619\n263.14,1.566\n263.88,1.515\n264.62,1.453\n265.37,1.397\n266.12,1.340\n266.88,1.280\n267.60,1.209\n268.35,1.137\n269.12,1.067\n269.94,1.009\n##END=\n'