b'##TITLE=4-Thiouracil\n##JCAMP-DX=4.24\n##DATA TYPE=UV/VIS SPECTRUM\n##ORIGIN=INSTITUTE OF ENERGY PROBLEMS OF CHEMICAL PHYSICS, RAS\n##OWNER=INEP CP RAS, NIST OSRD\nCollection (C) 2007 copyright by the U.S. Secretary of Commerce\non behalf of the United States of America. All rights reserved.\n##CAS REGISTRY NO=591-28-6\n##MOLFORM=C4H4N2OS\n##SOURCE REFERENCE=RAS UV No. 10449\n##$NIST SQUIB=1946ELI/HIT2137\n##$NIST SOURCE=TYUGLMTE\n##SPECTROMETER/DATA SYSTEM=Baushe and Lomb spectrograph\n##XUNITS=Wavelength (nm)\n##YUNITS=Logarithm epsilon\n##XFACTOR=1.0\n##YFACTOR=1.0\n##FIRSTX=246.75\n##LASTX=354.97\n##FIRSTY=3.503\n##MAXX=354.97\n##MINX=246.75\n##MAXY=4.218\n##MINY=3.14\n##NPOINTS=131\n##$REF AUTHOR=Elion, G.B.; Hitchings, G.H.\n##$REF JOURNAL=J. Am. Chem. Soc.\n##$REF VOLUME=68\n##$REF PAGE=2137\n##$REF DATE=1946\n##XYPOINTS=(XY..XY)\n246.75,3.503\n248.58,3.489\n251.26,3.454\n251.90,3.446\n252.55,3.435\n253.19,3.430\n254.48,3.413\n255.00,3.407\n255.77,3.395\n256.41,3.383\n256.99,3.376\n257.70,3.358\n258.34,3.348\n258.99,3.335\n259.70,3.322\n260.52,3.304\n261.56,3.284\n262.21,3.268\n262.85,3.260\n263.50,3.248\n264.29,3.232\n265.43,3.208\n266.07,3.199\n266.72,3.184\n267.36,3.175\n268.18,3.167\n269.54,3.155\n270.71,3.150\n271.87,3.144\n272.61,3.141\n273.24,3.140\n273.97,3.140\n274.96,3.141\n275.78,3.142\n276.38,3.144\n277.13,3.146\n277.67,3.149\n278.31,3.154\n279.03,3.163\n280.89,3.189\n281.38,3.197\n282.01,3.210\n282.82,3.226\n283.47,3.248\n284.11,3.268\n285.40,3.299\n286.07,3.314\n286.70,3.329\n287.24,3.346\n289.26,3.398\n290.03,3.427\n290.55,3.443\n291.20,3.462\n291.84,3.482\n292.48,3.498\n293.19,3.525\n293.91,3.550\n294.42,3.566\n295.06,3.582\n295.90,3.612\n296.63,3.637\n297.17,3.662\n297.64,3.682\n298.20,3.703\n298.92,3.732\n299.63,3.756\n300.33,3.783\n300.86,3.802\n301.42,3.821\n302.15,3.838\n302.77,3.858\n303.31,3.876\n303.95,3.894\n304.40,3.910\n305.21,3.933\n305.91,3.951\n306.36,3.967\n306.90,3.985\n307.35,4.000\n308.89,4.050\n310.06,4.081\n311.60,4.106\n312.45,4.117\n313.31,4.127\n314.17,4.134\n315.03,4.144\n315.85,4.152\n316.75,4.161\n317.61,4.165\n319.33,4.178\n320.18,4.183\n321.90,4.194\n322.76,4.199\n324.48,4.209\n325.34,4.212\n327.06,4.218\n327.91,4.218\n328.77,4.218\n329.63,4.217\n330.49,4.214\n332.21,4.208\n333.07,4.205\n334.79,4.196\n335.64,4.192\n336.46,4.187\n337.36,4.178\n338.09,4.169\n339.08,4.147\n339.94,4.133\n340.80,4.112\n341.52,4.093\n342.79,4.043\n343.35,4.019\n344.13,3.982\n344.67,3.957\n345.03,3.939\n345.95,3.910\n346.60,3.886\n347.24,3.868\n347.88,3.848\n348.45,3.825\n348.99,3.803\n349.72,3.773\n350.39,3.733\n351.10,3.692\n351.75,3.650\n352.39,3.613\n353.04,3.582\n353.57,3.558\n354.02,3.532\n354.97,3.474\n##END=\n'