b'##TITLE=1,4-Pentadiene\n##JCAMP-DX=4.24\n##DATA TYPE=UV/VIS SPECTRUM\n##ORIGIN=INSTITUTE OF ENERGY PROBLEMS OF CHEMICAL PHYSICS, RAS\n##OWNER=INEP CP RAS, NIST OSRD\nCollection (C) 2007 copyright by the U.S. Secretary of Commerce\non behalf of the United States of America. All rights reserved.\n##CAS REGISTRY NO=591-93-5\n##MOLFORM=C5H8\n##MP=-148.8\n##BP=26\n##SOURCE REFERENCE=RAS UV No. 5816\n##$NIST SQUIB=1959HAR/PRI357-360\n##$NIST SOURCE=TSGMTE\n##SPECTROMETER/DATA SYSTEM=Fluorite prism vacuum spectrograph\n##XUNITS=Wavelength (nm)\n##YUNITS=Logarithm epsilon\n##XFACTOR=1.000000\n##YFACTOR=1.000000\n##FIRSTX=196.4770\n##LASTX=159.1756\n##FIRSTY=2.96235\n##MAXX=196.477\n##MINX=159.176\n##MAXY=4.23197\n##MINY=2.96235\n##NPOINTS=570\n##$REF AUTHOR=Harrison, A.J.; Price, D.R.W.\n##$REF TITLE=Absorption of acyclic oxygen compounds in the vacuum ultraviolet. II. Ethers\n##$REF JOURNAL=J. Chem. Phys.\n##$REF VOLUME=30\n##$REF NUMBER=2\n##$REF PAGE=357-360\n##$REF DATE=1959\n##XYPOINTS=(XY..XY)\n196.4770,2.962351\n196.1932,2.996945\n196.1922,3.007558\n196.0860,3.019080\n196.0851,3.029172\n195.9917,3.029072\n195.9908,3.038937\n195.7907,3.058985\n195.7898,3.068200\n195.6958,3.077135\n195.6948,3.087069\n195.6008,3.095627\n195.5999,3.104104\n195.4944,3.113354\n195.4934,3.121494\n195.3997,3.129406\n195.3977,3.145917\n195.3041,3.153400\n195.3032,3.160830\n195.1980,3.168958\n195.1961,3.183182\n195.1026,3.190914\n195.1016,3.197734\n195.0083,3.204382\n195.0054,3.224722\n194.9121,3.230972\n194.9102,3.244091\n194.8064,3.244023\n194.8035,3.262626\n194.7105,3.268357\n194.7076,3.285967\n194.6145,3.292081\n194.6136,3.297492\n194.5101,3.297432\n194.5063,3.319070\n194.4136,3.324107\n194.4125,3.329760\n194.3198,3.334675\n194.3179,3.345040\n194.2148,3.344986\n194.2120,3.359213\n194.1204,3.359166\n194.1156,3.382996\n194.0232,3.387346\n194.0193,3.405544\n193.9270,3.409675\n193.9242,3.422465\n193.8205,3.426435\n193.8177,3.438747\n193.7256,3.442576\n193.7208,3.462335\n193.6296,3.462298\n193.6240,3.484707\n193.5206,3.488148\n193.5178,3.498850\n193.4260,3.502186\n193.4231,3.512551\n193.3314,3.515783\n193.3303,3.519428\n193.2273,3.522606\n193.2245,3.532500\n193.1339,3.532469\n193.1292,3.548224\n193.0376,3.551577\n193.0358,3.557528\n192.9330,3.560807\n192.9312,3.566633\n192.8398,3.569848\n192.8370,3.578732\n192.7458,3.581510\n192.7440,3.587067\n192.6528,3.590134\n192.6491,3.601297\n192.5468,3.603931\n192.5440,3.612151\n192.4529,3.615047\n192.4511,3.620194\n192.3612,3.620168\n192.3575,3.630594\n192.2554,3.633367\n192.2517,3.643485\n192.1611,3.645878\n192.1583,3.653348\n192.0677,3.655688\n192.0658,3.660669\n191.9651,3.660643\n191.9577,3.679456\n191.8672,3.681937\n191.8635,3.690996\n191.7741,3.690974\n191.7694,3.702236\n191.6690,3.702213\n191.6644,3.712933\n191.5743,3.714973\n191.5696,3.725638\n191.4805,3.725618\n191.4786,3.729861\n191.3887,3.731824\n191.3851,3.739908\n191.2841,3.741824\n191.2813,3.747824\n191.1915,3.749944\n191.1870,3.759561\n191.0973,3.761394\n191.0927,3.770990\n190.9920,3.772773\n190.9884,3.780136\n190.8988,3.782105\n190.8970,3.785615\n190.8076,3.787559\n190.8003,3.801682\n190.6999,3.803344\n190.6972,3.808556\n190.6079,3.810400\n190.6051,3.815529\n190.5169,3.815512\n190.5124,3.823794\n190.4124,3.825374\n190.4105,3.828750\n190.3216,3.830314\n190.3197,3.833652\n190.2309,3.835198\n190.2263,3.843308\n190.1375,3.844820\n190.1320,3.854248\n190.0324,3.855721\n190.0288,3.861813\n189.9401,3.863445\n189.9374,3.867987\n189.8489,3.869416\n189.8453,3.875320\n189.7459,3.876900\n189.7414,3.884100\n189.6531,3.885477\n189.6468,3.895430\n189.5585,3.896941\n189.5549,3.902485\n189.4559,3.903803\n189.4477,3.916108\n189.3605,3.916095\n189.3569,3.921401\n189.2689,3.922825\n189.2680,3.924097\n189.1802,3.925353\n189.1775,3.929294\n189.0788,3.930534\n189.0724,3.939670\n188.9848,3.940881\n188.9793,3.948455\n188.8918,3.949643\n188.8863,3.957066\n188.7880,3.958229\n188.7845,3.963047\n188.6969,3.964340\n188.6934,3.969092\n188.6061,3.970224\n188.6015,3.976182\n188.5035,3.977294\n188.4999,3.981907\n188.4127,3.983145\n188.4091,3.987696\n188.3221,3.988781\n188.3185,3.993274\n188.2207,3.994479\n188.2171,3.998913\n188.1303,3.999970\n188.1294,4.001036\n188.0425,4.002221\n188.0408,4.004339\n187.9540,4.005515\n187.9504,4.009838\n187.8531,4.010868\n187.8495,4.015139\n187.7629,4.016286\n187.7602,4.019486\n187.6738,4.020494\n187.6719,4.022652\n187.5749,4.023652\n187.5731,4.025793\n187.4868,4.026787\n187.4851,4.028789\n187.3988,4.029901\n187.3971,4.031888\n187.3002,4.032990\n187.2993,4.033978\n187.2133,4.034954\n187.2115,4.037040\n187.1255,4.038009\n187.1237,4.040081\n187.0272,4.041042\n187.0246,4.044065\n186.9388,4.045018\n186.9378,4.046098\n186.8521,4.047047\n186.8495,4.050028\n186.7639,4.050969\n186.7621,4.052980\n186.6659,4.053913\n186.6633,4.056847\n186.5778,4.057773\n186.5761,4.059753\n186.4907,4.060673\n186.4872,4.064483\n186.3913,4.065506\n186.3886,4.068363\n186.3034,4.069265\n186.3016,4.071193\n186.2174,4.071184\n186.2139,4.074904\n186.1183,4.075790\n186.1165,4.077690\n186.0324,4.077681\n186.0290,4.081346\n185.9441,4.082221\n185.9415,4.084971\n185.8462,4.085837\n185.8444,4.087694\n185.7597,4.088556\n185.7561,4.092238\n185.6715,4.093091\n185.6689,4.095774\n185.5844,4.096620\n185.5809,4.100129\n185.4859,4.101071\n185.4824,4.104544\n185.3981,4.105373\n185.3963,4.107148\n185.3120,4.107973\n185.3086,4.111391\n185.2148,4.111382\n185.2104,4.115694\n185.1263,4.116503\n185.1211,4.121572\n185.0370,4.122370\n185.0335,4.125777\n184.9391,4.126566\n184.9305,4.134758\n184.8475,4.134750\n184.8423,4.139612\n184.7585,4.140377\n184.7541,4.144412\n184.6704,4.145169\n184.6653,4.149916\n184.5713,4.150663\n184.5695,4.152262\n184.4868,4.152255\n184.4826,4.156088\n184.3991,4.156825\n184.3965,4.159142\n184.3027,4.159965\n184.3001,4.162266\n184.2168,4.162992\n184.2151,4.164547\n184.1319,4.165269\n184.1285,4.168267\n184.0350,4.168982\n184.0341,4.169795\n183.9519,4.169787\n183.9502,4.171228\n183.8671,4.172029\n183.8663,4.172747\n183.7732,4.173455\n183.7722,4.174259\n183.6894,4.174966\n183.6886,4.175678\n183.6058,4.176382\n183.6041,4.177890\n183.5214,4.178591\n183.5205,4.179385\n183.4285,4.179377\n183.4269,4.180787\n183.3452,4.180780\n183.3443,4.181571\n183.2626,4.181564\n183.2610,4.182966\n183.1693,4.182958\n183.1675,4.184443\n183.0861,4.184436\n183.0853,4.185133\n183.0031,4.185822\n183.0021,4.186604\n182.9107,4.186596\n182.9090,4.187982\n182.8278,4.187976\n182.8269,4.188753\n182.7449,4.189437\n182.7441,4.190126\n182.6529,4.190118\n182.6520,4.190892\n182.5702,4.191572\n182.5693,4.192258\n182.4884,4.192251\n182.4876,4.192936\n182.4058,4.193698\n182.4050,4.194380\n182.3141,4.194373\n182.3133,4.195054\n182.2317,4.195812\n182.2309,4.196492\n182.1503,4.196485\n182.1495,4.197163\n182.0588,4.197155\n182.0579,4.197917\n181.9775,4.197910\n181.9766,4.198586\n181.8954,4.199254\n181.8945,4.200012\n181.8042,4.200004\n181.8034,4.200677\n181.7231,4.200670\n181.7223,4.201342\n181.6421,4.201335\n181.6413,4.202006\n181.5612,4.201999\n181.5603,4.202752\n181.4703,4.202744\n181.4695,4.203413\n181.3079,4.204816\n181.2181,4.204809\n181.2173,4.205474\n181.0562,4.206871\n180.9667,4.206864\n180.9659,4.207526\n180.8864,4.207519\n180.8856,4.208180\n180.8061,4.208174\n180.8052,4.208916\n180.7159,4.208909\n180.6358,4.209561\n180.5566,4.209554\n180.5558,4.210212\n180.4766,4.210206\n180.4759,4.210863\n180.3869,4.210855\n180.3860,4.211593\n180.3070,4.211587\n180.3062,4.212242\n180.2273,4.212235\n180.2265,4.212889\n180.1377,4.212882\n180.1369,4.213616\n180.0581,4.213610\n180.0573,4.214262\n179.9786,4.214255\n179.9778,4.214906\n179.8893,4.214899\n179.8884,4.215630\n179.8098,4.215623\n179.8090,4.216272\n179.7305,4.216266\n179.7298,4.216914\n179.6415,4.216906\n179.6407,4.217553\n179.5624,4.217547\n179.5615,4.218273\n179.4832,4.218267\n179.4824,4.218912\n179.4034,4.219549\n179.4025,4.220273\n179.3146,4.220266\n179.3138,4.220907\n179.2350,4.221542\n179.2341,4.222262\n179.0669,4.223526\n179.0660,4.224242\n178.9881,4.224236\n178.9874,4.224872\n178.9088,4.225501\n178.9080,4.226135\n178.8206,4.226128\n178.8197,4.226841\n178.7421,4.226834\n178.7413,4.227467\n178.6637,4.227460\n178.6629,4.228092\n178.3404,4.230739\n178.2535,4.230732\n178.2527,4.231359\n178.1756,4.231353\n178.0977,4.231972\n177.2168,4.231274\n177.2160,4.231900\n177.0651,4.230635\n177.0643,4.231262\n176.9042,4.229915\n176.9034,4.230622\n176.8282,4.229909\n176.7436,4.229273\n176.6685,4.228637\n176.6677,4.229267\n176.5936,4.227921\n176.5927,4.228631\n176.5186,4.227283\n176.5178,4.227915\n176.4342,4.226644\n176.4335,4.227276\n176.3595,4.225924\n176.2840,4.225918\n176.1260,4.223998\n176.1252,4.224635\n176.0515,4.223275\n176.0506,4.223992\n175.9668,4.223267\n175.8931,4.221983\n175.8924,4.222622\n175.8189,4.221256\n175.8180,4.221977\n175.6618,4.219235\n175.6609,4.219959\n175.5883,4.217938\n175.5876,4.218584\n175.5143,4.217205\n175.5135,4.217932\n175.4317,4.215902\n175.4302,4.217197\n175.3577,4.215246\n175.3569,4.215895\n175.2846,4.213856\n175.2830,4.215239\n175.0547,4.211138\n175.0540,4.211793\n174.9726,4.209734\n174.9719,4.210391\n174.7528,4.206990\n174.7521,4.207652\n174.6717,4.204908\n174.6702,4.206320\n174.5984,4.204235\n174.5977,4.204901\n174.5260,4.202810\n174.5244,4.204229\n174.4435,4.202133\n174.4428,4.202802\n174.2981,4.200021\n174.2973,4.200694\n174.2167,4.198581\n174.2151,4.200014\n174.1437,4.197898\n174.1430,4.198574\n174.0708,4.197215\n174.0701,4.197891\n173.9889,4.196444\n173.9880,4.197207\n173.9161,4.195758\n173.9153,4.196437\n173.8434,4.195071\n173.8426,4.195751\n173.7715,4.193615\n173.7708,4.194298\n173.6891,4.193607\n173.6165,4.192917\n173.5433,4.192910\n173.4626,4.191446\n173.4619,4.192132\n173.3903,4.190752\n173.3896,4.191439\n173.3173,4.190745\n173.1639,4.189267\n173.0918,4.188569\n173.0911,4.189260\n173.0107,4.187870\n173.0100,4.188562\n172.9389,4.187084\n172.9380,4.187863\n172.8670,4.186383\n172.8662,4.187077\n172.7951,4.185681\n172.7944,4.186376\n172.6411,4.185666\n172.4889,4.184170\n172.4167,4.184163\n172.3452,4.183457\n172.2641,4.183450\n172.1216,4.181947\n172.0407,4.181939\n171.9695,4.181230\n171.8977,4.181223\n171.8267,4.180512\n171.7468,4.179712\n171.7460,4.180504\n171.6036,4.179698\n171.5239,4.178984\n171.4532,4.178270\n171.4525,4.178977\n171.3818,4.178262\n171.3024,4.177458\n171.2311,4.177451\n171.1606,4.176734\n171.0902,4.176016\n171.0895,4.176727\n170.9392,4.176001\n170.7900,4.174471\n170.6484,4.174457\n170.5696,4.173735\n170.4989,4.173727\n170.4291,4.173005\n170.2800,4.172183\n170.2793,4.172989\n170.1393,4.172168\n170.0609,4.171442\n169.9205,4.171428\n169.7731,4.169882\n169.7031,4.169875\n169.6251,4.169145\n169.4855,4.169130\n169.4077,4.168399\n169.3380,4.168391\n169.2692,4.167569\n169.1996,4.167562\n169.1221,4.166828\n168.4078,4.163012\n168.2709,4.162172\n168.2701,4.162997\n168.1255,4.161421\n168.1249,4.162156\n167.5652,4.156737\n167.4885,4.156729\n167.3538,4.155131\n166.6579,4.147239\n166.6571,4.148093\n166.4501,4.144068\n166.4493,4.144928\n165.7644,4.132740\n165.6908,4.131058\n165.6900,4.131945\n165.6254,4.129469\n165.6248,4.130261\n165.5588,4.129462\n165.4854,4.127767\n165.4847,4.128561\n164.9466,4.117648\n164.9459,4.118562\n164.8819,4.116009\n164.8812,4.116825\n164.8083,4.115182\n164.8076,4.116000\n164.7430,4.114252\n164.7423,4.115174\n164.6778,4.113423\n163.8693,4.099439\n163.8686,4.100286\n163.7328,4.096761\n163.7321,4.097614\n163.6684,4.095897\n163.6677,4.096752\n163.6040,4.094925\n162.8053,4.081318\n162.8046,4.082202\n162.7423,4.079425\n162.7415,4.080424\n162.6780,4.079416\n162.6070,4.077626\n162.6063,4.078517\n161.8876,4.066223\n161.8869,4.067138\n161.8253,4.064263\n161.8245,4.065297\n161.7537,4.064253\n161.6280,4.062390\n160.7117,4.052557\n160.5883,4.049574\n160.5876,4.050525\n160.5178,4.049563\n160.4559,4.048482\n159.4974,4.040387\n159.4286,4.039403\n159.3059,4.038286\n159.3052,4.039384\n159.2365,4.038275\n159.1756,4.037287\n##END=\n'