b'##TITLE=2-Nitropyrrole\n##JCAMP-DX=4.24\n##DATA TYPE=UV/VIS SPECTRUM\n##ORIGIN=INSTITUTE OF ENERGY PROBLEMS OF CHEMICAL PHYSICS, RAS\n##OWNER=INEP CP RAS, NIST OSRD\nCollection (C) 2007 copyright by the U.S. Secretary of Commerce\non behalf of the United States of America. All rights reserved.\n##CAS REGISTRY NO=5919-26-6\n##MOLFORM=C4H4N2O2\n##SOURCE REFERENCE=RAS UV No. 12903\n##$NIST SQUIB=1959NOV/1438\n##$NIST SOURCE=TYUGLMTE\n##SPECTROMETER/DATA SYSTEM=Spectrograph ISP-22\n##XUNITS=Wavelength (nm)\n##YUNITS=Logarithm epsilon\n##XFACTOR=1.0\n##YFACTOR=1.0\n##FIRSTX=334.87\n##LASTX=385.3\n##FIRSTY=3.647\n##MAXX=385.3\n##MINX=334.87\n##MAXY=3.771\n##MINY=3.538\n##NPOINTS=23\n##$REF AUTHOR=Novikov, S.S.; et al.\n##$REF JOURNAL=Izvest. Akad. Nauk S.S.S.R., Otdel Khim. Nauk (in Rus.)\n##$REF PAGE=1438\n##$REF DATE=1959\n##XYPOINTS=(XY..XY)\n334.87,3.647\n337.18,3.662\n339.48,3.678\n341.79,3.693\n344.38,3.705\n346.40,3.724\n348.70,3.740\n351.30,3.744\n353.60,3.759\n355.91,3.771\n358.50,3.767\n360.81,3.755\n362.82,3.736\n364.84,3.713\n367.15,3.693\n369.45,3.674\n371.76,3.654\n374.06,3.635\n376.37,3.616\n378.67,3.600\n380.69,3.577\n383.00,3.557\n385.30,3.538\n##END=\n'