b'##TITLE=1,2-Pentadiene\n##JCAMP-DX=4.24\n##DATA TYPE=UV/VIS SPECTRUM\n##ORIGIN=INSTITUTE OF ENERGY PROBLEMS OF CHEMICAL PHYSICS, RAS\n##OWNER=INEP CP RAS, NIST OSRD\nCollection (C) 2007 copyright by the U.S. Secretary of Commerce\non behalf of the United States of America. All rights reserved.\n##CAS REGISTRY NO=591-95-7\n##MOLFORM=C5H8\n##MP=-137.3\n##BP=44.9\n##SOURCE REFERENCE=RAS UV No. 816\n##$NIST SQUIB=1955JON/TAY228-237\n##$NIST SOURCE=TSGMTE\n##SPECTROMETER/DATA SYSTEM=Beckman DU\n##XUNITS=Wavelength (nm)\n##YUNITS=Logarithm epsilon\n##XFACTOR=1.000000\n##YFACTOR=1.000000\n##FIRSTX=170.0000\n##LASTX=199.0000\n##FIRSTY=3.2\n##MAXX=199\n##MINX=170\n##MAXY=3.38\n##MINY=2.02\n##NPOINTS=30\n##$REF AUTHOR=Jones, L.C., Jr.; Taylor, L.W.\n##$REF TITLE=Far ultraviolet absorption spectra of unsaturated and aromatic hydrocarbons\n##$REF JOURNAL=Anal. Chem.\n##$REF VOLUME=27\n##$REF NUMBER=2\n##$REF PAGE=228-237\n##$REF DATE=1955\n##XYPOINTS=(XY..XY)\n170.0000,3.200002\n171.0000,3.190000\n172.0000,3.190000\n173.0000,3.200000\n174.0000,3.240000\n175.0000,3.290000\n176.0000,3.340000\n177.0000,3.380000\n178.0000,3.370000\n179.0000,3.320000\n180.0000,3.320001\n181.0000,3.340000\n182.0000,3.130000\n183.0000,2.940000\n184.0000,2.840000\n185.0000,2.760000\n186.0000,2.700000\n187.0000,2.660000\n188.0000,2.620000\n189.0000,2.570000\n190.0000,2.500003\n191.0000,2.440000\n192.0000,2.370000\n193.0000,2.310000\n194.0000,2.250000\n195.0000,2.220000\n196.0000,2.190000\n197.0000,2.150000\n198.0000,2.080000\n199.0000,2.020000\n##END=\n'