b'##TITLE=Phosphine, methyl-\n##JCAMP-DX=4.24\n##DATA TYPE=UV/VIS SPECTRUM\n##ORIGIN=INSTITUTE OF ENERGY PROBLEMS OF CHEMICAL PHYSICS, RAS\n##OWNER=INEP CP RAS, NIST OSRD\nCollection (C) 2007 copyright by the U.S. Secretary of Commerce\non behalf of the United States of America. All rights reserved.\n##CAS REGISTRY NO=593-54-4\n##MOLFORM=CH5P\n##BP=- 14\n##SOURCE REFERENCE=RAS UV No. 13170\n##$NIST SQUIB=1963HAL2853\n##$NIST SOURCE=TYUGLMTE\n##SPECTROMETER/DATA SYSTEM=Beckman DU\n##XUNITS=Wavelength (nm)\n##YUNITS=Logarithm epsilon\n##XFACTOR=1.0\n##YFACTOR=1.0\n##FIRSTX=184.78\n##LASTX=202.38\n##FIRSTY=2.439\n##MAXX=202.38\n##MINX=184.78\n##MAXY=3.172\n##MINY=1.124\n##NPOINTS=173\n##$REF AUTHOR=Halmann, M.\n##$REF JOURNAL=J. Chem. Soc.\n##$REF PAGE=2853\n##$REF DATE=1963\n##XYPOINTS=(XY..XY)\n184.78,2.439\n184.83,2.455\n184.88,2.474\n184.98,2.517\n185.08,2.559\n185.17,2.614\n185.27,2.668\n185.37,2.691\n185.47,2.726\n185.56,2.777\n185.66,2.819\n185.76,2.874\n185.86,2.889\n185.96,2.928\n186.05,2.967\n186.15,2.982\n186.25,3.021\n186.35,3.056\n186.44,3.087\n186.84,3.149\n187.03,3.172\n187.23,3.164\n187.42,3.145\n187.52,3.126\n187.62,3.114\n187.71,3.095\n187.81,3.075\n187.91,3.060\n188.01,3.040\n188.11,3.021\n188.20,3.002\n188.30,2.971\n188.40,2.967\n188.50,2.936\n188.59,2.908\n188.69,2.889\n188.79,2.870\n188.89,2.850\n188.99,2.815\n189.08,2.800\n189.18,2.777\n189.28,2.753\n189.38,2.722\n189.47,2.699\n189.57,2.683\n189.67,2.641\n189.77,2.614\n189.87,2.590\n189.96,2.559\n190.06,2.536\n190.16,2.486\n190.26,2.459\n190.35,2.427\n190.45,2.408\n190.55,2.373\n190.65,2.330\n190.75,2.299\n190.84,2.265\n190.94,2.237\n191.04,2.191\n191.14,2.156\n191.23,2.106\n191.33,2.036\n191.43,2.005\n191.53,1.950\n191.63,1.888\n191.72,1.850\n191.82,1.807\n191.92,1.768\n192.02,1.702\n192.11,1.663\n192.21,1.636\n192.31,1.597\n192.41,1.555\n192.51,1.524\n192.60,1.504\n192.70,1.485\n192.80,1.465\n192.90,1.446\n192.99,1.431\n193.09,1.423\n193.19,1.427\n193.38,1.423\n193.48,1.442\n193.58,1.462\n193.68,1.485\n193.78,1.504\n193.87,1.528\n193.97,1.559\n194.07,1.578\n194.17,1.613\n194.26,1.652\n194.36,1.675\n194.46,1.725\n194.56,1.741\n194.66,1.776\n194.75,1.799\n194.85,1.818\n195.05,1.803\n195.14,1.803\n195.24,1.780\n195.34,1.756\n195.44,1.710\n195.54,1.679\n195.63,1.648\n195.73,1.613\n195.83,1.562\n195.93,1.520\n196.02,1.493\n196.12,1.446\n196.22,1.372\n196.32,1.334\n196.42,1.260\n196.51,1.198\n196.61,1.155\n196.71,1.140\n196.90,1.132\n197.00,1.132\n197.10,1.136\n197.20,1.140\n197.30,1.140\n197.39,1.151\n197.49,1.155\n197.59,1.171\n197.69,1.178\n197.78,1.198\n197.88,1.213\n197.98,1.229\n198.08,1.248\n198.18,1.264\n198.27,1.279\n198.37,1.318\n198.47,1.357\n198.57,1.407\n198.66,1.442\n198.76,1.508\n198.86,1.725\n198.96,1.881\n199.05,1.966\n199.15,2.036\n199.25,2.125\n199.35,2.191\n199.45,2.206\n199.54,2.214\n199.64,2.218\n199.74,2.210\n199.84,2.168\n199.93,2.129\n200.03,2.086\n200.13,1.997\n200.23,1.927\n200.33,1.815\n200.42,1.621\n200.52,1.415\n200.62,1.314\n200.72,1.275\n200.81,1.248\n200.91,1.240\n201.01,1.225\n201.11,1.217\n201.21,1.206\n201.30,1.198\n201.40,1.186\n201.50,1.182\n201.60,1.171\n201.69,1.167\n201.79,1.159\n201.89,1.151\n201.99,1.144\n202.09,1.136\n202.18,1.140\n202.28,1.124\n202.38,1.128\n##END=\n'