b'##TITLE=Phosphine, trimethyl-\n##JCAMP-DX=4.24\n##DATA TYPE=UV/VIS SPECTRUM\n##ORIGIN=INSTITUTE OF ENERGY PROBLEMS OF CHEMICAL PHYSICS, RAS\n##OWNER=INEP CP RAS, NIST OSRD\nCollection (C) 2007 copyright by the U.S. Secretary of Commerce\non behalf of the United States of America. All rights reserved.\n##CAS REGISTRY NO=594-09-2\n##MOLFORM=C3H9P\n##MP=- 85\n##BP=37.5\n##SOURCE REFERENCE=RAS UV No. 13186\n##$NIST SQUIB=1963HAL2853\n##$NIST SOURCE=TYUGLMTE\n##SPECTROMETER/DATA SYSTEM=Beckman DU\n##XUNITS=Wavelength (nm)\n##YUNITS=Logarithm epsilon\n##XFACTOR=1.0\n##YFACTOR=1.0\n##FIRSTX=187.51\n##LASTX=217.39\n##FIRSTY=3.798\n##MAXX=217.39\n##MINX=187.51\n##MAXY=4.266\n##MINY=3.13\n##NPOINTS=157\n##$REF AUTHOR=Halmann, M.\n##$REF JOURNAL=J. Chem. Soc.\n##$REF PAGE=2853\n##$REF DATE=1963\n##XYPOINTS=(XY..XY)\n187.51,3.798\n187.56,3.802\n187.62,3.805\n187.67,3.813\n187.77,3.821\n187.82,3.825\n187.87,3.829\n187.92,3.833\n187.97,3.841\n188.12,3.852\n188.27,3.868\n188.42,3.887\n189.07,3.934\n189.12,3.938\n189.17,3.942\n189.22,3.946\n189.27,3.950\n189.32,3.954\n189.37,3.954\n189.42,3.958\n189.47,3.962\n189.52,3.965\n189.57,3.969\n189.62,3.973\n189.82,3.981\n189.97,3.985\n190.13,3.993\n190.28,4.012\n190.88,4.036\n191.03,4.044\n191.18,4.047\n191.33,4.059\n191.48,4.067\n191.63,4.071\n191.78,4.083\n191.93,4.086\n192.08,4.098\n192.23,4.106\n192.38,4.118\n192.54,4.118\n192.69,4.125\n192.84,4.133\n192.99,4.141\n193.29,4.157\n193.44,4.157\n193.59,4.164\n193.74,4.172\n193.89,4.172\n194.04,4.176\n194.19,4.180\n194.34,4.192\n194.64,4.200\n194.79,4.207\n194.95,4.211\n195.10,4.211\n195.55,4.227\n195.70,4.227\n195.85,4.231\n196.00,4.235\n196.15,4.250\n196.45,4.246\n196.60,4.250\n196.75,4.250\n196.90,4.258\n197.36,4.266\n197.51,4.266\n197.66,4.266\n202.33,4.262\n202.38,4.262\n202.43,4.262\n202.48,4.262\n202.53,4.262\n202.58,4.262\n202.63,4.262\n202.68,4.262\n202.73,4.262\n203.03,4.258\n203.08,4.258\n203.23,4.246\n203.38,4.246\n203.53,4.243\n203.68,4.243\n204.28,4.219\n204.44,4.219\n204.59,4.215\n204.74,4.215\n205.04,4.196\n205.19,4.188\n205.34,4.184\n205.49,4.180\n205.64,4.172\n205.79,4.164\n205.94,4.164\n206.09,4.157\n206.24,4.149\n206.54,4.141\n207.15,4.106\n207.30,4.102\n207.45,4.090\n207.60,4.086\n207.75,4.075\n207.90,4.067\n208.05,4.063\n208.20,4.051\n208.95,4.004\n209.00,4.001\n209.05,3.997\n209.10,3.993\n209.15,3.989\n209.21,3.985\n209.26,3.981\n209.41,3.973\n209.56,3.965\n209.71,3.954\n209.86,3.942\n210.01,3.930\n210.61,3.880\n210.76,3.876\n210.91,3.860\n211.06,3.841\n211.21,3.833\n211.36,3.817\n211.51,3.802\n211.67,3.794\n211.82,3.778\n211.97,3.766\n212.12,3.755\n212.27,3.724\n212.42,3.712\n212.57,3.700\n212.72,3.685\n212.87,3.669\n213.02,3.657\n213.17,3.642\n213.32,3.626\n213.47,3.606\n213.62,3.599\n213.77,3.583\n213.92,3.564\n214.38,3.509\n214.53,3.493\n214.68,3.474\n214.83,3.458\n214.98,3.439\n215.13,3.419\n215.28,3.396\n215.43,3.380\n215.88,3.329\n216.18,3.294\n216.33,3.275\n216.49,3.248\n216.64,3.228\n216.79,3.208\n216.94,3.189\n217.09,3.166\n217.24,3.150\n217.39,3.130\n##END=\n'