b'##TITLE=2,2-Dinitropropane\n##JCAMP-DX=4.24\n##DATA TYPE=UV/VIS SPECTRUM\n##ORIGIN=INSTITUTE OF ENERGY PROBLEMS OF CHEMICAL PHYSICS, RAS\n##OWNER=INEP CP RAS, NIST OSRD\nCollection (C) 2007 copyright by the U.S. Secretary of Commerce\non behalf of the United States of America. All rights reserved.\n##CAS REGISTRY NO=595-49-3\n##MOLFORM=C3H6N2O4\n##MP=53\n##BP=185.5\n##SOURCE REFERENCE=RAS UV No. 13183\n##$NIST SQUIB=1963UNG/KIS121\n##$NIST SOURCE=TYUGLMTE\n##SPECTROMETER/DATA SYSTEM=Perkin-Elmer Model 21\n##XUNITS=Wavelength (nm)\n##YUNITS=Logarithm epsilon\n##XFACTOR=1.0\n##YFACTOR=1.0\n##FIRSTX=212.83\n##LASTX=333.13\n##FIRSTY=3.483\n##MAXX=333.13\n##MINX=212.83\n##MAXY=3.483\n##MINY=0.6\n##NPOINTS=147\n##$REF AUTHOR=Ungnade, H.E.; Kissinger, L.W.\n##$REF JOURNAL=Tetrahedron\n##$REF VOLUME=19 (supplement)\n##$REF PAGE=121\n##$REF DATE=1963\n##XYPOINTS=(XY..XY)\n212.83,3.483\n213.01,3.480\n213.19,3.476\n213.72,3.421\n214.61,3.362\n215.49,3.290\n216.38,3.225\n217.26,3.159\n218.15,3.066\n219.04,2.997\n219.92,2.922\n220.81,2.829\n221.69,2.746\n222.58,2.670\n223.46,2.570\n224.35,2.488\n225.24,2.377\n226.12,2.295\n227.01,2.191\n227.89,2.098\n228.78,2.019\n229.67,1.905\n230.55,1.826\n231.44,1.712\n232.32,1.626\n233.21,1.551\n234.09,1.464\n234.98,1.420\n235.87,1.385\n236.75,1.354\n237.64,1.337\n238.52,1.323\n240.30,1.320\n241.18,1.320\n242.07,1.330\n242.95,1.337\n243.84,1.354\n244.72,1.371\n245.61,1.389\n246.50,1.406\n247.38,1.427\n248.27,1.444\n249.15,1.461\n250.04,1.478\n250.93,1.492\n251.81,1.509\n252.70,1.523\n253.58,1.540\n254.47,1.551\n255.35,1.568\n256.24,1.582\n257.13,1.595\n258.01,1.609\n258.90,1.616\n259.78,1.630\n260.67,1.637\n261.56,1.650\n262.44,1.654\n263.33,1.664\n264.21,1.668\n265.10,1.678\n265.98,1.685\n266.87,1.688\n267.76,1.692\n268.64,1.699\n269.53,1.702\n270.41,1.702\n271.30,1.706\n272.19,1.706\n273.07,1.706\n273.96,1.706\n274.84,1.699\n275.73,1.699\n276.61,1.695\n277.50,1.688\n278.39,1.681\n279.27,1.678\n280.16,1.668\n281.04,1.664\n281.93,1.657\n282.81,1.647\n283.70,1.640\n284.59,1.630\n285.47,1.616\n286.36,1.606\n287.24,1.588\n288.13,1.575\n289.02,1.564\n289.90,1.551\n290.79,1.533\n291.67,1.520\n292.56,1.499\n293.44,1.482\n294.33,1.464\n295.22,1.447\n296.10,1.430\n296.99,1.409\n297.87,1.389\n298.76,1.368\n299.65,1.347\n300.53,1.323\n301.42,1.303\n302.30,1.285\n303.19,1.265\n304.07,1.244\n304.96,1.220\n305.85,1.199\n306.73,1.182\n307.62,1.161\n308.50,1.144\n309.39,1.123\n310.28,1.103\n311.16,1.082\n312.05,1.058\n312.93,1.037\n313.82,1.017\n314.70,0.999\n315.59,0.982\n316.48,0.965\n317.36,0.944\n318.25,0.920\n319.13,0.903\n320.02,0.882\n320.91,0.865\n321.79,0.844\n322.68,0.824\n323.56,0.803\n324.45,0.782\n325.33,0.762\n326.22,0.745\n327.11,0.727\n328.88,0.696\n329.06,0.693\n329.23,0.689\n329.41,0.689\n329.59,0.686\n329.76,0.683\n329.94,0.679\n330.30,0.665\n330.65,0.658\n331.00,0.648\n331.36,0.641\n331.71,0.634\n332.07,0.624\n332.42,0.621\n332.78,0.607\n333.13,0.600\n##END=\n'