b'##TITLE=Methionine\n##JCAMP-DX=4.24\n##DATA TYPE=UV/VIS SPECTRUM\n##ORIGIN=INSTITUTE OF ENERGY PROBLEMS OF CHEMICAL PHYSICS, RAS\n##OWNER=INEP CP RAS, NIST OSRD\nCollection (C) 2007 copyright by the U.S. Secretary of Commerce\non behalf of the United States of America. All rights reserved.\n##CAS REGISTRY NO=59-51-8\n##MOLFORM=C5H11NO2S\n##MP=281 dec\n##SOURCE REFERENCE=RAS UV No. 11273\n##$NIST SQUIB=1952SAI/WAL285\n##$NIST SOURCE=TYUGLMTE\n##SPECTROMETER/DATA SYSTEM=Beckman DU\n##XUNITS=Wavelength (nm)\n##YUNITS=Logarithm epsilon\n##XFACTOR=1.0\n##YFACTOR=1.0\n##FIRSTX=200.67\n##LASTX=229.33\n##FIRSTY=0.299\n##MAXX=229.33\n##MINX=200.67\n##MAXY=0.299\n##MINY=-0.744\n##NPOINTS=53\n##$REF AUTHOR=Saidel, L.J.; Waldman, S.\n##$REF JOURNAL=J. Biol. Chem.\n##$REF VOLUME=197\n##$REF PAGE=285\n##$REF DATE=1952\n##XYPOINTS=(XY..XY)\n200.67,0.299\n201.35,0.294\n201.75,0.292\n202.83,0.288\n204.17,0.279\n205.65,0.263\n205.78,0.261\n205.92,0.260\n206.05,0.259\n206.19,0.257\n206.32,0.256\n206.46,0.256\n206.73,0.254\n207.26,0.239\n207.80,0.235\n208.34,0.224\n208.88,0.212\n209.42,0.205\n210.49,0.181\n211.03,0.169\n211.57,0.150\n212.11,0.133\n212.65,0.117\n213.18,0.099\n213.72,0.077\n214.26,0.059\n214.80,0.019\n215.34,-0.001\n215.87,-0.027\n216.41,-0.053\n216.95,-0.082\n217.49,-0.108\n218.03,-0.132\n218.57,-0.161\n219.10,-0.189\n219.64,-0.222\n220.18,-0.246\n220.72,-0.271\n221.26,-0.289\n221.79,-0.312\n222.33,-0.351\n222.87,-0.367\n223.41,-0.412\n223.95,-0.430\n224.48,-0.449\n225.56,-0.519\n226.10,-0.543\n226.64,-0.568\n227.17,-0.603\n227.71,-0.632\n228.25,-0.673\n228.79,-0.707\n229.33,-0.744\n##END=\n'