b'##TITLE=Ethene, 1,2-dichloro-1,2-difluoro-\n##JCAMP-DX=4.24\n##DATA TYPE=UV/VIS SPECTRUM\n##ORIGIN=INSTITUTE OF ENERGY PROBLEMS OF CHEMICAL PHYSICS, RAS\n##OWNER=INEP CP RAS, NIST OSRD\nCollection (C) 2007 copyright by the U.S. Secretary of Commerce\non behalf of the United States of America. All rights reserved.\n##CAS REGISTRY NO=598-88-9\n##MOLFORM=C2Cl2F2\n##MP=- 130\n##BP=21.1\n##SOURCE REFERENCE=RAS UV No. 10173\n##$NIST SQUIB=1950LAC/PAR5486\n##$NIST SOURCE=TYUGLMTE\n##SPECTROMETER/DATA SYSTEM=Beckman DU\n##XUNITS=Wavelength (nm)\n##YUNITS=Logarithm epsilon\n##XFACTOR=1.0\n##YFACTOR=1.0\n##FIRSTX=246.41\n##LASTX=265.74\n##FIRSTY=1.663\n##MAXX=265.74\n##MINX=246.41\n##MAXY=1.663\n##MINY=-0.015\n##NPOINTS=60\n##$REF AUTHOR=Lacher, J.R.; Park, J.D.\n##$REF JOURNAL=J. Am. Chem. Soc.\n##$REF VOLUME=72\n##$REF PAGE=5486\n##$REF DATE=1950\n##XYPOINTS=(XY..XY)\n246.41,1.663\n246.48,1.655\n246.56,1.646\n246.64,1.637\n246.74,1.627\n246.81,1.620\n246.89,1.613\n246.99,1.604\n247.11,1.592\n247.26,1.576\n247.32,1.566\n247.40,1.558\n247.48,1.551\n247.60,1.539\n247.75,1.525\n247.81,1.518\n247.87,1.514\n248.11,1.491\n248.17,1.485\n248.24,1.479\n248.36,1.467\n248.49,1.456\n248.69,1.441\n248.90,1.424\n249.05,1.411\n249.24,1.397\n249.43,1.383\n249.59,1.367\n249.72,1.354\n249.88,1.340\n250.09,1.321\n250.30,1.303\n250.48,1.288\n250.72,1.265\n250.91,1.251\n251.11,1.229\n251.22,1.217\n251.45,1.192\n251.65,1.162\n251.98,1.127\n252.18,1.106\n252.45,1.078\n252.72,1.049\n253.06,1.013\n253.51,0.965\n253.90,0.924\n254.28,0.884\n254.72,0.841\n255.32,0.790\n255.84,0.734\n256.49,0.670\n257.28,0.605\n258.05,0.542\n259.02,0.471\n260.11,0.390\n261.17,0.318\n262.27,0.233\n263.38,0.144\n264.50,0.060\n265.74,-0.015\n##END=\n'