b'##TITLE=Butane, 2-nitro-\n##JCAMP-DX=4.24\n##DATA TYPE=UV/VIS SPECTRUM\n##ORIGIN=INSTITUTE OF ENERGY PROBLEMS OF CHEMICAL PHYSICS, RAS\n##OWNER=INEP CP RAS, NIST OSRD\nCollection (C) 2007 copyright by the U.S. Secretary of Commerce\non behalf of the United States of America. All rights reserved.\n##CAS REGISTRY NO=600-24-8\n##MOLFORM=C4H9NO2\n##BP=78/ 100 mm\n##SOURCE REFERENCE=RAS UV No. 12537\n##$NIST SQUIB=1956UNG/SMI993\n##$NIST SOURCE=TYUGLMTE\n##SPECTROMETER/DATA SYSTEM=Cary recording spectrophotometer\n##XUNITS=Wavelength (nm)\n##YUNITS=Logarithm epsilon\n##XFACTOR=1.0\n##YFACTOR=1.0\n##FIRSTX=223.94\n##LASTX=339.19\n##FIRSTY=2.99\n##MAXX=339.19\n##MINX=223.94\n##MAXY=2.99\n##MINY=0.136\n##NPOINTS=103\n##$REF AUTHOR=Ungnade, H.E.; Smiley, R.A.\n##$REF JOURNAL=J. Org. Chem.\n##$REF VOLUME=21\n##$REF PAGE=993\n##$REF DATE=1956\n##XYPOINTS=(XY..XY)\n223.94,2.990\n225.57,2.868\n225.80,2.854\n226.03,2.840\n226.26,2.821\n226.72,2.793\n227.88,2.699\n229.04,2.610\n230.20,2.464\n231.36,2.328\n232.52,2.210\n233.68,2.060\n234.84,1.881\n236.00,1.712\n237.16,1.542\n238.32,1.387\n239.48,1.270\n240.64,1.138\n241.80,1.067\n242.96,1.034\n244.12,1.020\n245.28,1.016\n246.43,1.030\n247.59,1.034\n248.75,1.053\n249.91,1.096\n251.07,1.124\n252.23,1.157\n253.39,1.185\n254.55,1.213\n255.71,1.232\n256.87,1.255\n258.03,1.279\n259.19,1.303\n260.35,1.317\n261.51,1.340\n262.67,1.354\n263.83,1.373\n264.99,1.387\n266.14,1.406\n267.30,1.415\n268.46,1.429\n269.62,1.434\n270.78,1.444\n271.94,1.444\n273.10,1.448\n274.26,1.448\n275.42,1.448\n276.58,1.448\n277.74,1.448\n278.90,1.444\n280.06,1.429\n281.22,1.425\n282.38,1.415\n283.54,1.397\n284.70,1.378\n285.86,1.368\n287.01,1.350\n288.17,1.331\n289.33,1.317\n290.49,1.298\n291.65,1.279\n292.81,1.255\n293.97,1.223\n295.13,1.194\n296.29,1.171\n297.45,1.147\n298.61,1.119\n299.77,1.086\n300.93,1.063\n302.09,1.034\n303.25,1.006\n304.41,0.973\n305.57,0.945\n306.72,0.917\n307.88,0.889\n309.04,0.856\n310.20,0.832\n311.36,0.809\n312.52,0.781\n313.68,0.743\n314.84,0.719\n316.00,0.696\n317.16,0.663\n318.32,0.630\n319.48,0.607\n320.64,0.578\n321.80,0.550\n322.96,0.522\n324.12,0.494\n325.28,0.470\n326.43,0.442\n327.59,0.418\n328.75,0.386\n329.91,0.357\n331.07,0.329\n332.23,0.301\n333.39,0.268\n334.55,0.245\n335.71,0.216\n336.87,0.183\n338.03,0.155\n339.19,0.136\n##END=\n'