b'##TITLE=Ethane, 1,1-dinitro-\n##JCAMP-DX=4.24\n##DATA TYPE=UV/VIS SPECTRUM\n##ORIGIN=INSTITUTE OF ENERGY PROBLEMS OF CHEMICAL PHYSICS, RAS\n##OWNER=INEP CP RAS, NIST OSRD\nCollection (C) 2007 copyright by the U.S. Secretary of Commerce\non behalf of the United States of America. All rights reserved.\n##CAS REGISTRY NO=600-40-8\n##MOLFORM=C2H4N2O4\n##BP=185.5\n##SOURCE REFERENCE=RAS UV No. 12509\n##$NIST SQUIB=1957UNG/KIS1088\n##$NIST SOURCE=TYUGLMTE\n##SPECTROMETER/DATA SYSTEM=Beckman Model DU\n##XUNITS=Wavelength (nm)\n##YUNITS=Logarithm epsilon\n##XFACTOR=1.0\n##YFACTOR=1.0\n##FIRSTX=217.79\n##LASTX=338.06\n##FIRSTY=3.79\n##MAXX=338.06\n##MINX=217.79\n##MAXY=3.79\n##MINY=0.829\n##NPOINTS=159\n##$REF AUTHOR=Ungnade, H.E.; Kissinnger, L.W.\n##$REF JOURNAL=J. Org. Chem.\n##$REF PAGE=1088\n##$REF DATE=1957\n##XYPOINTS=(XY..XY)\n217.79,3.790\n217.95,3.784\n218.11,3.774\n218.27,3.768\n218.43,3.758\n218.59,3.752\n219.07,3.720\n219.24,3.711\n219.40,3.701\n219.56,3.695\n219.72,3.685\n219.88,3.679\n220.04,3.669\n220.52,3.647\n221.33,3.602\n222.13,3.554\n222.94,3.496\n223.74,3.445\n224.55,3.397\n225.35,3.343\n226.16,3.289\n226.96,3.238\n227.77,3.180\n228.57,3.119\n229.38,3.065\n230.18,3.008\n230.99,2.934\n231.79,2.870\n232.60,2.810\n233.40,2.736\n234.21,2.669\n235.02,2.608\n235.82,2.544\n236.63,2.471\n237.43,2.388\n238.24,2.317\n239.04,2.228\n239.85,2.132\n240.65,2.027\n241.46,1.918\n242.26,1.845\n243.07,1.768\n243.87,1.707\n244.68,1.647\n245.48,1.602\n246.29,1.573\n247.09,1.544\n247.90,1.525\n248.70,1.509\n249.51,1.493\n250.31,1.484\n251.12,1.477\n251.92,1.477\n252.73,1.477\n253.53,1.484\n254.34,1.490\n255.22,1.500\n255.95,1.506\n256.77,1.515\n257.56,1.525\n258.46,1.535\n259.17,1.544\n259.97,1.554\n260.75,1.563\n261.56,1.574\n262.39,1.586\n263.18,1.595\n264.00,1.605\n264.73,1.616\n265.61,1.627\n266.79,1.640\n267.97,1.653\n268.83,1.662\n269.63,1.672\n270.44,1.678\n271.24,1.688\n272.05,1.694\n272.85,1.704\n273.64,1.711\n274.46,1.717\n275.27,1.723\n276.07,1.729\n276.88,1.733\n277.70,1.736\n278.51,1.738\n279.24,1.741\n279.98,1.742\n280.94,1.742\n281.71,1.742\n282.51,1.739\n283.22,1.738\n284.12,1.736\n284.93,1.733\n285.73,1.730\n286.46,1.726\n287.34,1.720\n288.15,1.714\n288.90,1.707\n289.71,1.700\n290.56,1.691\n291.37,1.682\n292.17,1.672\n292.98,1.662\n293.61,1.654\n294.59,1.643\n295.38,1.633\n296.20,1.624\n297.01,1.611\n297.81,1.599\n298.62,1.586\n299.42,1.576\n300.23,1.563\n301.03,1.551\n301.84,1.535\n302.64,1.522\n303.45,1.506\n304.25,1.487\n305.06,1.471\n305.86,1.455\n306.67,1.436\n307.47,1.413\n308.28,1.394\n309.08,1.378\n309.89,1.362\n310.69,1.343\n311.50,1.321\n312.30,1.305\n313.11,1.289\n313.91,1.273\n314.72,1.257\n315.52,1.241\n316.33,1.225\n317.13,1.209\n317.94,1.193\n318.74,1.177\n319.55,1.161\n320.35,1.145\n321.16,1.129\n321.96,1.116\n322.77,1.100\n323.57,1.084\n324.38,1.071\n325.18,1.055\n325.99,1.043\n326.79,1.027\n327.60,1.011\n328.40,0.998\n329.21,0.982\n330.01,0.969\n330.82,0.950\n331.62,0.937\n332.43,0.921\n333.23,0.912\n334.04,0.899\n334.84,0.886\n335.65,0.870\n336.45,0.854\n337.26,0.841\n338.06,0.829\n##END=\n'