b'##TITLE=2,3-Pentadione\n##JCAMP-DX=4.24\n##DATA TYPE=UV/VIS SPECTRUM\n##ORIGIN=INSTITUTE OF ENERGY PROBLEMS OF CHEMICAL PHYSICS, RAS\n##OWNER=INEP CP RAS, NIST OSRD\nCollection (C) 2007 copyright by the U.S. Secretary of Commerce\non behalf of the United States of America. All rights reserved.\n##CAS REGISTRY NO=600-14-6\n##MOLFORM=C5H8O2\n##BP=108\n##SOURCE REFERENCE=RAS UV No. 5075\n##$NIST SQUIB=1972JAC/YAR1331-1337\n##$NIST SOURCE=TSGMTE\n##SPECTROMETER/DATA SYSTEM=n.i.g.\n##XUNITS=Wavelength (nm)\n##YUNITS=Logarithm epsilon\n##XFACTOR=1.000000\n##YFACTOR=1.000000\n##FIRSTX=205.8741\n##LASTX=469.4509\n##FIRSTY=3.57833\n##MAXX=469.451\n##MINX=205.874\n##MAXY=3.57833\n##MINY=1.62542\n##NPOINTS=369\n##$REF AUTHOR=Jackson, A.W.; Yarwood, A.J.\n##$REF TITLE=Fluorescence and Phosphorescence of 2,3-pentanedione\n##$REF JOURNAL=Can. J. Chem.\n##$REF VOLUME=50\n##$REF PAGE=1331-1337\n##$REF DATE=1972\n##XYPOINTS=(XY..XY)\n205.8741,3.578329\n206.0191,3.573504\n206.1626,3.568621\n206.3049,3.563681\n206.4460,3.558680\n206.5859,3.553619\n206.7247,3.548495\n206.8622,3.543307\n206.9988,3.538054\n207.1341,3.532734\n207.2686,3.527344\n207.4020,3.521885\n207.5345,3.516353\n207.6661,3.510747\n207.7969,3.505066\n207.9268,3.499306\n208.0559,3.493466\n208.1842,3.487544\n208.3119,3.481538\n208.4388,3.475444\n208.5651,3.469262\n208.6908,3.462987\n208.8159,3.456618\n208.9405,3.450152\n209.0647,3.443585\n209.1883,3.436915\n209.3115,3.430139\n209.4344,3.423253\n209.5569,3.416253\n209.6791,3.409136\n209.8011,3.401899\n209.9228,3.394536\n210.0443,3.387044\n210.1656,3.379418\n210.2869,3.371654\n210.4081,3.363746\n210.5292,3.355690\n210.6503,3.347478\n210.7715,3.339106\n210.8927,3.330568\n211.0140,3.321857\n211.1355,3.312964\n211.2571,3.303885\n211.3790,3.294609\n211.5011,3.285129\n211.6236,3.275435\n211.7463,3.265518\n211.8694,3.255367\n211.9929,3.244972\n212.1169,3.234321\n212.2414,3.223399\n212.3663,3.212194\n212.4919,3.200692\n212.6180,3.188874\n212.7447,3.176725\n212.8722,3.164224\n213.0003,3.151352\n213.1292,3.138086\n213.2588,3.124400\n213.3894,3.110267\n213.5207,3.095659\n213.6529,3.080541\n213.7860,3.064877\n213.9202,3.048626\n214.0553,3.031744\n214.1915,3.014177\n214.3287,2.995870\n214.4671,2.976756\n214.6067,2.956763\n214.7474,2.935806\n214.8893,2.913786\n215.0325,2.890591\n215.1771,2.866086\n215.1771,2.866086\n215.9611,2.832348\n216.8020,2.795161\n217.6714,2.754159\n217.6714,2.754159\n218.8727,2.754562\n220.0172,2.760291\n221.1060,2.770757\n222.1402,2.785259\n223.1207,2.803046\n224.0487,2.823376\n224.9251,2.845554\n225.7511,2.868962\n226.5277,2.893066\n227.2558,2.917421\n227.9365,2.941662\n228.5709,2.965494\n229.1600,2.988682\n229.7048,3.011043\n230.2064,3.032431\n230.6659,3.052734\n231.0842,3.071862\n231.4623,3.089744\n231.8015,3.106321\n232.1025,3.121541\n232.3667,3.135359\n232.5949,3.147729\n232.7881,3.158605\n232.9475,3.167936\n233.0740,3.175665\n233.1688,3.181726\n233.2328,3.186039\n233.2328,3.186039\n233.8769,3.198894\n234.4592,3.211440\n234.9863,3.223676\n235.4649,3.235604\n235.9016,3.247223\n236.3032,3.258538\n236.6760,3.269549\n237.0272,3.280258\n237.3631,3.290667\n237.6903,3.300778\n238.0157,3.310595\n238.3458,3.320118\n238.6873,3.329351\n238.6873,3.329351\n239.3183,3.337035\n239.8516,3.344860\n240.2989,3.352785\n240.6721,3.360772\n240.9826,3.368786\n241.2424,3.376794\n241.4630,3.384764\n241.6561,3.392669\n241.8335,3.400481\n242.0069,3.408177\n242.1879,3.415732\n242.3882,3.423127\n242.6197,3.430341\n242.8938,3.437356\n243.2224,3.444155\n243.6172,3.450722\n244.0898,3.457041\n244.6520,3.463097\n245.3154,3.468878\n246.0918,3.474369\n246.9927,3.479558\n248.0302,3.484431\n249.2155,3.488977\n250.5607,3.493183\n252.0772,3.497036\n252.0772,3.497036\n253.9980,3.494615\n255.5511,3.490316\n256.7880,3.484559\n257.7605,3.477772\n258.5199,3.470401\n259.1178,3.462918\n259.6056,3.455831\n260.0348,3.449680\n260.0348,3.449680\n260.3597,3.443499\n260.6922,3.437147\n261.0338,3.430623\n261.3855,3.423928\n261.7488,3.417062\n262.1248,3.410023\n262.5151,3.402812\n262.9205,3.395428\n263.3428,3.387872\n263.7828,3.380144\n264.2420,3.372243\n264.7217,3.364169\n265.2233,3.355923\n265.7477,3.347505\n266.2967,3.338916\n266.8710,3.330155\n267.4723,3.321225\n268.1017,3.312125\n268.7605,3.302858\n269.4500,3.293425\n270.1715,3.283827\n270.9262,3.274068\n271.7156,3.264150\n272.5406,3.254075\n273.4028,3.243849\n274.3032,3.233474\n275.2435,3.222957\n276.2245,3.212302\n277.2477,3.201516\n278.3145,3.190607\n279.4260,3.179583\n280.5835,3.168453\n281.7884,3.157227\n283.0418,3.145919\n283.0418,3.145919\n283.7150,3.129708\n284.4242,3.112685\n285.1574,3.094840\n285.9025,3.076163\n285.9025,3.076163\n286.6297,3.062476\n287.3586,3.047934\n288.0926,3.032507\n288.8347,3.016158\n289.5883,2.998847\n290.3566,2.980528\n291.1428,2.961149\n291.9504,2.940652\n292.7824,2.918969\n293.6422,2.896025\n294.5329,2.871733\n295.4581,2.845993\n296.4206,2.818690\n297.4240,2.789693\n298.4713,2.758847\n299.5660,2.725970\n300.7114,2.690847\n301.9104,2.653223\n303.1666,2.612785\n304.4830,2.569151\n305.8631,2.521846\n307.3100,2.470264\n308.8269,2.413619\n310.4173,2.350856\n312.0843,2.280523\n313.8312,2.200525\n315.6611,2.107662\n317.5775,1.996662\n317.5775,1.996662\n320.2698,1.911513\n322.9524,1.842479\n325.6221,1.798315\n328.2754,1.785069\n330.9092,1.802728\n333.5202,1.845252\n336.1050,1.903816\n338.6606,1.970359\n341.1837,2.039052\n343.6710,2.106307\n346.1189,2.170136\n348.5247,2.229572\n350.8848,2.284243\n353.1961,2.334074\n355.4551,2.379169\n357.6589,2.419683\n359.8041,2.455792\n361.8872,2.487654\n361.8872,2.487654\n363.6250,2.530359\n365.3833,2.570891\n367.1541,2.609339\n368.9294,2.645795\n370.7010,2.680363\n372.4607,2.713140\n374.2008,2.744224\n375.9129,2.773705\n377.5893,2.801667\n379.2216,2.828189\n380.8017,2.853345\n382.3218,2.877202\n383.7737,2.899820\n385.1493,2.921256\n386.4405,2.941560\n387.6393,2.960778\n388.7377,2.978952\n389.7274,2.996119\n390.6007,3.012313\n390.6007,3.012313\n392.3961,3.018446\n394.1040,3.027468\n395.7323,3.038837\n397.2892,3.052017\n398.7825,3.066498\n400.2206,3.081813\n401.6112,3.097543\n402.9626,3.113319\n404.2826,3.128821\n405.5794,3.143775\n406.8610,3.157939\n408.1354,3.171107\n409.4107,3.183092\n410.6950,3.193726\n411.9961,3.202849\n413.3223,3.210305\n413.3223,3.210305\n413.8580,3.218507\n414.4223,3.226555\n415.0440,3.234456\n415.0440,3.234456\n415.5652,3.234913\n415.6990,3.239799\n415.7000,3.240283\n415.7009,3.240767\n415.7019,3.241250\n416.1148,3.235260\n416.7213,3.235388\n416.7213,3.235388\n417.5536,3.226520\n418.0799,3.222210\n418.7513,3.218870\n418.7513,3.218870\n419.3050,3.218854\n419.9160,3.218836\n420.5556,3.218817\n420.5556,3.218817\n420.8159,3.220182\n421.0758,3.221318\n421.3356,3.222339\n421.3356,3.222339\n424.0586,3.218506\n427.3534,3.214052\n430.8528,3.211847\n430.8528,3.211847\n431.2549,3.220024\n431.6570,3.228050\n432.0591,3.235929\n432.0591,3.235929\n432.4554,3.240779\n432.5877,3.240148\n432.7024,3.235404\n432.7483,3.239300\n432.9660,3.238341\n433.3456,3.234769\n433.9883,3.233915\n433.9883,3.233915\n434.4216,3.224001\n435.0557,3.208709\n436.0148,3.191318\n437.4235,3.175592\n439.4061,3.165840\n439.4061,3.165840\n440.0524,3.166945\n440.6984,3.167919\n441.3440,3.168638\n441.3440,3.168638\n441.7335,3.167461\n442.1513,3.166153\n442.6260,3.164582\n442.6260,3.164582\n443.2340,3.151151\n443.8429,3.137436\n444.4556,3.123406\n445.0747,3.109025\n445.7032,3.094253\n446.3437,3.079045\n446.9989,3.063352\n447.6719,3.047118\n448.3654,3.030280\n449.0820,3.012767\n449.8247,2.994498\n450.5961,2.975378\n451.3992,2.955301\n452.2367,2.934141\n453.1114,2.911754\n454.0260,2.887964\n454.9833,2.862566\n455.9862,2.835311\n457.0375,2.805892\n457.0375,2.805892\n457.3011,2.774726\n457.6255,2.741551\n458.0170,2.705956\n458.4827,2.667421\n459.0288,2.625258\n459.6623,2.578556\n460.3897,2.526047\n461.2176,2.465920\n462.1527,2.395430\n463.2017,2.310142\n464.3711,2.202152\n465.6678,2.055137\n465.6678,2.055137\n467.4183,1.914850\n469.4509,1.625425\n##END=\n'