b'##TITLE=Creatinine\n##JCAMP-DX=4.24\n##DATA TYPE=UV/VIS SPECTRUM\n##ORIGIN=INSTITUTE OF ENERGY PROBLEMS OF CHEMICAL PHYSICS, RAS\n##OWNER=INEP CP RAS, NIST OSRD\nCollection (C) 2007 copyright by the U.S. Secretary of Commerce\non behalf of the United States of America. All rights reserved.\n##CAS REGISTRY NO=60-27-5\n##MOLFORM=C4H7N3O\n##MP=300 dec\n##SOURCE REFERENCE=RAS UV No. 10582\n##$NIST SQUIB=1952GAE/GRU63\n##$NIST SOURCE=TYUGLMTE\n##SPECTROMETER/DATA SYSTEM=Beckman DU\n##XUNITS=Wavelength (nm)\n##YUNITS=Logarithm epsilon\n##XFACTOR=1.0\n##YFACTOR=1.0\n##FIRSTX=212.92\n##LASTX=267.89\n##FIRSTY=3.761\n##MAXX=267.89\n##MINX=212.92\n##MAXY=3.867\n##MINY=2.18\n##NPOINTS=63\n##$REF AUTHOR=Gaede, K.; Gruttner, R.\n##$REF JOURNAL=Naturwiss.\n##$REF VOLUME=39\n##$REF PAGE=63\n##$REF DATE=1952\n##XYPOINTS=(XY..XY)\n212.92,3.761\n213.40,3.733\n214.34,3.690\n215.23,3.660\n216.12,3.648\n217.03,3.645\n217.91,3.651\n218.80,3.662\n219.69,3.676\n220.58,3.686\n221.48,3.704\n222.37,3.722\n223.26,3.735\n224.15,3.760\n225.05,3.782\n225.94,3.795\n226.83,3.811\n227.72,3.824\n228.62,3.835\n229.51,3.844\n230.40,3.851\n231.29,3.859\n232.19,3.864\n233.08,3.867\n233.97,3.867\n234.86,3.867\n235.76,3.863\n236.65,3.859\n237.54,3.854\n238.43,3.843\n239.33,3.833\n240.22,3.818\n241.11,3.801\n242.00,3.777\n242.90,3.758\n243.79,3.733\n244.68,3.706\n245.57,3.675\n246.47,3.643\n247.36,3.609\n248.25,3.572\n249.14,3.531\n250.04,3.487\n250.93,3.439\n251.82,3.387\n252.71,3.324\n253.61,3.250\n254.50,3.173\n255.39,3.110\n256.28,3.035\n257.18,2.970\n258.07,2.900\n258.96,2.849\n259.85,2.782\n260.75,2.724\n261.64,2.669\n262.53,2.606\n263.42,2.548\n264.32,2.481\n265.21,2.402\n266.10,2.331\n266.99,2.247\n267.89,2.180\n##END=\n'