b'##TITLE=3-Methyluracil\n##JCAMP-DX=4.24\n##DATA TYPE=UV/VIS SPECTRUM\n##ORIGIN=INSTITUTE OF ENERGY PROBLEMS OF CHEMICAL PHYSICS, RAS\n##OWNER=INEP CP RAS, NIST OSRD\nCollection (C) 2007 copyright by the U.S. Secretary of Commerce\non behalf of the United States of America. All rights reserved.\n##CAS REGISTRY NO=608-34-4\n##MOLFORM=C5H6N2O2\n##SOURCE REFERENCE=RAS UV No. 11053\n##$NIST SQUIB=1952SHU/FOX199\n##$NIST SOURCE=TYUGLMTE\n##SPECTROMETER/DATA SYSTEM=Beckman DU\n##XUNITS=Wavelength (nm)\n##YUNITS=Logarithm epsilon\n##XFACTOR=1.0\n##YFACTOR=1.0\n##FIRSTX=222.43\n##LASTX=307\n##FIRSTY=3.621\n##MAXX=307\n##MINX=222.43\n##MAXY=3.792\n##MINY=1.158\n##NPOINTS=143\n##$REF AUTHOR=Shugar, D.; Fox, J.J.\n##$REF JOURNAL=Biochim. et Biophys. Acta\n##$REF VOLUME=9\n##$REF PAGE=199\n##$REF DATE=1952\n##XYPOINTS=(XY..XY)\n222.43,3.621\n222.57,3.619\n222.71,3.616\n222.86,3.615\n223.00,3.613\n223.57,3.582\n224.14,3.568\n224.71,3.542\n225.29,3.539\n225.86,3.510\n226.43,3.491\n227.00,3.472\n227.57,3.468\n228.14,3.455\n229.29,3.425\n229.86,3.409\n230.43,3.404\n231.57,3.386\n232.14,3.373\n233.29,3.365\n234.43,3.368\n235.00,3.368\n236.14,3.378\n236.71,3.378\n237.29,3.389\n238.43,3.404\n239.00,3.418\n239.57,3.439\n240.14,3.451\n241.29,3.466\n241.86,3.483\n242.43,3.497\n243.00,3.514\n243.57,3.531\n244.14,3.549\n245.29,3.563\n245.86,3.577\n246.43,3.593\n247.00,3.607\n247.57,3.628\n248.14,3.638\n248.71,3.650\n249.29,3.659\n249.86,3.674\n250.43,3.682\n251.00,3.692\n251.57,3.701\n252.14,3.710\n252.71,3.719\n253.29,3.730\n253.86,3.739\n254.43,3.747\n255.00,3.757\n255.57,3.757\n256.14,3.765\n256.71,3.772\n257.29,3.774\n257.86,3.781\n258.43,3.786\n259.00,3.786\n259.57,3.790\n260.14,3.791\n260.71,3.792\n261.86,3.792\n263.00,3.790\n264.14,3.786\n264.71,3.781\n265.29,3.781\n266.43,3.768\n267.00,3.769\n267.57,3.758\n268.14,3.753\n268.71,3.752\n269.29,3.741\n269.86,3.735\n270.43,3.724\n271.00,3.719\n271.57,3.706\n272.14,3.696\n272.71,3.687\n273.29,3.677\n273.86,3.677\n274.43,3.665\n275.00,3.645\n275.57,3.643\n276.14,3.631\n276.71,3.621\n277.29,3.602\n277.86,3.598\n278.43,3.583\n279.00,3.565\n279.57,3.549\n280.14,3.542\n280.71,3.537\n281.29,3.516\n281.86,3.503\n283.00,3.489\n283.57,3.470\n284.14,3.466\n284.71,3.466\n285.29,3.451\n286.43,3.439\n287.57,3.425\n288.14,3.406\n289.29,3.394\n289.86,3.376\n290.43,3.362\n291.00,3.343\n291.57,3.323\n292.14,3.311\n293.29,3.266\n293.86,3.259\n294.43,3.234\n295.00,3.208\n295.57,3.154\n296.14,3.117\n296.71,3.083\n297.29,3.039\n297.86,2.997\n298.43,2.951\n299.00,2.857\n299.57,2.848\n300.14,2.727\n300.71,2.690\n301.29,2.590\n301.86,2.520\n302.43,2.481\n303.00,2.334\n304.14,2.200\n304.86,2.061\n305.00,2.061\n305.29,2.003\n305.57,1.936\n305.71,1.936\n305.86,1.857\n306.00,1.857\n306.14,1.857\n306.29,1.760\n306.43,1.760\n306.57,1.760\n306.71,1.635\n306.86,1.635\n307.00,1.158\n##END=\n'