b'##TITLE=Thiophene, 2-nitro-\n##JCAMP-DX=4.24\n##DATA TYPE=UV/VIS SPECTRUM\n##ORIGIN=INSTITUTE OF ENERGY PROBLEMS OF CHEMICAL PHYSICS, RAS\n##OWNER=INEP CP RAS, NIST OSRD\nCollection (C) 2007 copyright by the U.S. Secretary of Commerce\non behalf of the United States of America. All rights reserved.\n##CAS REGISTRY NO=609-40-5\n##MOLFORM=C4H3NO2S\n##MP=41-41.5\n##SOURCE REFERENCE=RAS UV No. 15980\n##$NIST SQUIB=1973MAA/MAN1787\n##$NIST SOURCE=TYUGLMTE\n##SPECTROMETER/DATA SYSTEM=Beckman DB-G\n##XUNITS=Wavelength (nm)\n##YUNITS=Logarithm epsilon\n##XFACTOR=1.0\n##YFACTOR=1.0\n##FIRSTX=217.24\n##LASTX=330.7\n##FIRSTY=3.467\n##MAXX=330.7\n##MINX=217.24\n##MAXY=3.839\n##MINY=3.072\n##NPOINTS=91\n##$REF AUTHOR=Maag, H.; Manukian, B.K.\n##$REF JOURNAL=Helv. Chim. Acta\n##$REF VOLUME=56\n##$REF PAGE=1787\n##$REF DATE=1973\n##XYPOINTS=(XY..XY)\n217.24,3.467\n218.35,3.437\n220.58,3.423\n223.92,3.420\n226.14,3.425\n228.36,3.434\n229.48,3.437\n230.59,3.442\n232.81,3.450\n233.93,3.456\n235.04,3.462\n236.15,3.467\n237.26,3.473\n238.38,3.478\n239.49,3.487\n240.60,3.492\n241.71,3.509\n242.83,3.520\n243.94,3.531\n245.05,3.536\n246.16,3.550\n247.27,3.561\n248.39,3.570\n249.50,3.581\n250.61,3.589\n251.72,3.609\n252.84,3.620\n253.95,3.634\n255.06,3.647\n256.17,3.659\n257.29,3.675\n258.40,3.684\n259.51,3.700\n260.62,3.711\n261.73,3.722\n262.85,3.728\n263.96,3.739\n265.07,3.753\n266.18,3.759\n267.30,3.764\n268.41,3.772\n269.52,3.778\n270.63,3.783\n271.75,3.786\n272.86,3.792\n273.97,3.792\n275.08,3.795\n276.20,3.797\n277.31,3.797\n278.42,3.797\n279.53,3.800\n281.76,3.806\n282.87,3.811\n286.21,3.817\n287.32,3.820\n288.43,3.828\n289.54,3.828\n290.66,3.831\n291.77,3.831\n292.88,3.833\n293.99,3.833\n295.10,3.836\n296.22,3.836\n297.33,3.836\n298.44,3.839\n299.55,3.836\n301.78,3.828\n304.00,3.817\n306.23,3.795\n307.34,3.786\n308.45,3.770\n309.57,3.750\n310.68,3.731\n311.79,3.711\n312.90,3.695\n314.01,3.667\n315.13,3.636\n316.24,3.611\n317.35,3.586\n318.46,3.559\n319.58,3.511\n320.69,3.492\n321.80,3.450\n322.91,3.414\n324.03,3.348\n325.14,3.317\n326.25,3.281\n327.36,3.211\n328.48,3.164\n329.59,3.120\n330.70,3.072\n##END=\n'