b'##TITLE=Uracil, 1-methyl-\n##JCAMP-DX=4.24\n##DATA TYPE=UV/VIS SPECTRUM\n##ORIGIN=INSTITUTE OF ENERGY PROBLEMS OF CHEMICAL PHYSICS, RAS\n##OWNER=INEP CP RAS, NIST OSRD\nCollection (C) 2007 copyright by the U.S. Secretary of Commerce\non behalf of the United States of America. All rights reserved.\n##CAS REGISTRY NO=615-77-0\n##MOLFORM=C5H6N2O2\n##SOURCE REFERENCE=RAS UV No. 11058\n##$NIST SQUIB=1952SHU/FOX199\n##$NIST SOURCE=TYUGLMTE\n##SPECTROMETER/DATA SYSTEM=Beckman DU\n##XUNITS=Wavelength (nm)\n##YUNITS=Logarithm epsilon\n##XFACTOR=1.0\n##YFACTOR=1.0\n##FIRSTX=222.49\n##LASTX=294.61\n##FIRSTY=3.705\n##MAXX=294.61\n##MINX=222.49\n##MAXY=3.944\n##MINY=2.079\n##NPOINTS=133\n##$REF AUTHOR=Shugar, D.; Fox, J.J.\n##$REF JOURNAL=Biochim. et Biophys. Acta\n##$REF VOLUME=9\n##$REF PAGE=199\n##$REF DATE=1952\n##XYPOINTS=(XY..XY)\n222.49,3.705\n222.61,3.704\n222.73,3.704\n222.85,3.703\n222.97,3.696\n223.45,3.687\n223.93,3.677\n224.41,3.657\n224.89,3.647\n225.37,3.635\n225.84,3.623\n226.32,3.598\n226.80,3.585\n227.28,3.562\n227.76,3.546\n228.24,3.531\n228.72,3.514\n229.20,3.497\n229.68,3.482\n230.16,3.463\n230.64,3.447\n231.12,3.430\n231.60,3.424\n232.07,3.410\n232.55,3.398\n233.99,3.378\n234.95,3.358\n235.91,3.361\n236.39,3.361\n237.35,3.367\n237.82,3.378\n238.78,3.393\n239.74,3.408\n240.22,3.420\n240.70,3.435\n241.18,3.448\n241.66,3.450\n242.14,3.461\n242.62,3.472\n243.10,3.484\n243.58,3.496\n244.05,3.510\n244.53,3.515\n245.01,3.529\n245.49,3.543\n245.97,3.556\n246.45,3.570\n246.93,3.581\n247.41,3.593\n247.89,3.606\n248.37,3.630\n249.33,3.655\n249.80,3.670\n250.28,3.685\n250.76,3.694\n251.24,3.712\n251.72,3.721\n252.20,3.731\n253.16,3.758\n253.64,3.766\n254.12,3.776\n254.60,3.790\n255.08,3.798\n255.55,3.813\n256.03,3.822\n256.51,3.839\n256.99,3.845\n257.47,3.853\n257.95,3.866\n258.43,3.871\n258.91,3.877\n259.39,3.888\n259.87,3.892\n260.35,3.898\n260.83,3.904\n261.31,3.914\n261.78,3.915\n262.26,3.919\n262.74,3.924\n263.22,3.929\n263.70,3.933\n264.66,3.939\n265.14,3.941\n266.10,3.944\n267.06,3.943\n268.01,3.942\n268.49,3.940\n268.97,3.936\n269.45,3.933\n269.93,3.929\n271.37,3.919\n271.85,3.911\n272.33,3.906\n273.28,3.890\n273.76,3.879\n274.24,3.872\n274.72,3.860\n275.20,3.848\n275.68,3.839\n276.16,3.823\n276.64,3.807\n277.12,3.800\n277.60,3.784\n278.08,3.769\n278.56,3.751\n279.04,3.740\n279.51,3.721\n279.99,3.710\n280.47,3.688\n280.95,3.657\n281.43,3.646\n281.91,3.619\n282.39,3.595\n282.87,3.564\n283.35,3.544\n283.83,3.528\n284.31,3.496\n284.79,3.450\n285.26,3.412\n286.22,3.365\n286.70,3.305\n287.18,3.239\n287.66,3.164\n288.14,3.119\n288.62,3.073\n289.10,3.022\n289.58,2.916\n290.54,2.841\n291.02,2.749\n291.49,2.634\n292.93,2.400\n293.89,2.191\n294.61,2.079\n##END=\n'