b'##TITLE=2,5-Furandione, 3-methyl-\n##JCAMP-DX=4.24\n##DATA TYPE=UV/VIS SPECTRUM\n##ORIGIN=INSTITUTE OF ENERGY PROBLEMS OF CHEMICAL PHYSICS, RAS\n##OWNER=INEP CP RAS, NIST OSRD\nCollection (C) 2007 copyright by the U.S. Secretary of Commerce\non behalf of the United States of America. All rights reserved.\n##CAS REGISTRY NO=616-02-4\n##MOLFORM=C5H4O3\n##MP=7.5\n##BP=213.5\n##SOURCE REFERENCE=RAS UV No. 17702\n##$NIST SQUIB=1977BOU/LEM305\n##$NIST SOURCE=TYUGLMTE\n##SPECTROMETER/DATA SYSTEM=unknown\n##XUNITS=Wavelength (nm)\n##YUNITS=Logarithm epsilon\n##XFACTOR=1.0\n##YFACTOR=1.0\n##FIRSTX=233.95\n##LASTX=338.63\n##FIRSTY=3.78\n##MAXX=338.63\n##MINX=233.95\n##MAXY=3.78\n##MINY=0.544\n##NPOINTS=96\n##$REF AUTHOR=Boule, P.; Lemaire, J.\n##$REF JOURNAL=Compt. rend.\n##$REF VOLUME=285\n##$REF PAGE=305\n##$REF DATE=1977\n##XYPOINTS=(XY..XY)\n233.95,3.780\n234.12,3.776\n234.30,3.776\n234.48,3.773\n234.66,3.773\n234.83,3.769\n235.01,3.769\n235.19,3.766\n235.37,3.766\n235.55,3.762\n235.72,3.762\n235.90,3.758\n236.08,3.758\n236.26,3.755\n236.43,3.755\n237.98,3.737\n239.10,3.719\n239.99,3.709\n242.54,3.667\n243.54,3.648\n244.43,3.631\n246.21,3.577\n247.10,3.542\n248.87,3.453\n250.65,3.361\n252.43,3.254\n253.32,3.190\n254.21,3.121\n255.10,3.041\n255.98,2.956\n256.87,2.853\n257.72,2.771\n258.66,2.690\n259.54,2.625\n260.44,2.552\n261.32,2.483\n262.20,2.394\n263.09,2.295\n263.98,2.196\n264.89,2.099\n265.78,2.016\n266.65,1.954\n267.54,1.883\n268.40,1.821\n269.19,1.773\n269.97,1.734\n270.74,1.699\n271.80,1.672\n272.87,1.648\n273.76,1.634\n274.65,1.613\n277.31,1.563\n278.56,1.548\n280.87,1.521\n281.75,1.510\n282.64,1.503\n285.33,1.481\n286.20,1.474\n287.09,1.471\n289.75,1.457\n290.64,1.450\n291.53,1.442\n294.20,1.432\n295.08,1.425\n295.97,1.421\n297.63,1.412\n298.60,1.406\n299.53,1.403\n300.44,1.397\n303.08,1.382\n303.97,1.379\n304.86,1.371\n307.52,1.347\n308.41,1.339\n309.30,1.329\n311.95,1.293\n312.86,1.275\n315.52,1.229\n316.41,1.215\n317.30,1.208\n319.97,1.158\n320.85,1.141\n323.52,1.073\n324.41,1.051\n325.22,1.027\n326.07,1.002\n327.72,0.952\n328.85,0.913\n329.74,0.881\n331.52,0.814\n332.41,0.785\n333.30,0.753\n335.07,0.682\n335.96,0.657\n337.74,0.558\n338.63,0.544\n##END=\n'