b"##TITLE=Propane, 2-methyl-2-(methylthio)-\n##JCAMP-DX=4.24\n##DATA TYPE=UV/VIS SPECTRUM\n##ORIGIN=INSTITUTE OF ENERGY PROBLEMS OF CHEMICAL PHYSICS, RAS\n##OWNER=INEP CP RAS, NIST OSRD\nCollection (C) 2007 copyright by the U.S. Secretary of Commerce\non behalf of the United States of America. All rights reserved.\n##CAS REGISTRY NO=6163-64-0\n##MOLFORM=C5H12S\n##BP=101-102\n##SOURCE REFERENCE=RAS UV No. 20109\n##$NIST SQUIB=1969BOL/100\n##$NIST SOURCE=TYUGLMTE\n##SPECTROMETER/DATA SYSTEM=unknown\n##XUNITS=Wavelength (nm)\n##YUNITS=Logarithm epsilon\n##XFACTOR=1.0\n##YFACTOR=1.0\n##FIRSTX=206.62\n##LASTX=273.69\n##FIRSTY=3.282\n##MAXX=273.69\n##MINX=206.62\n##MAXY=3.441\n##MINY=0.049\n##NPOINTS=84\n##$REF AUTHOR=Bol'shakov, G.F.; et al.\n##$REF JOURNAL=Ultraviolet spectra of heteroorganic compounds\n##$REF PAGE=100\n##$REF DATE=1969\n##XYPOINTS=(XY..XY)\n206.62,3.282\n207.30,3.315\n208.15,3.345\n209.00,3.374\n210.02,3.399\n211.21,3.420\n212.56,3.437\n214.09,3.441\n215.28,3.420\n216.27,3.377\n216.98,3.335\n217.60,3.292\n218.34,3.240\n218.51,3.227\n218.68,3.214\n218.85,3.202\n219.19,3.177\n219.59,3.137\n219.98,3.090\n220.26,3.058\n220.56,3.019\n220.89,2.981\n221.21,2.936\n221.55,2.884\n221.90,2.828\n222.24,2.774\n222.58,2.719\n222.90,2.662\n223.26,2.597\n223.60,2.545\n223.94,2.492\n224.28,2.425\n224.62,2.358\n224.97,2.292\n225.30,2.228\n225.98,2.085\n226.66,1.926\n227.34,1.812\n228.02,1.690\n228.69,1.577\n229.37,1.476\n230.05,1.380\n230.73,1.292\n231.41,1.203\n232.09,1.132\n232.77,1.065\n233.45,1.002\n234.13,0.947\n234.81,0.884\n235.49,0.842\n236.17,0.788\n236.84,0.742\n237.52,0.704\n238.20,0.662\n238.88,0.637\n239.56,0.603\n240.24,0.569\n240.92,0.540\n241.60,0.515\n242.28,0.481\n242.96,0.460\n243.64,0.435\n245.50,0.376\n246.52,0.351\n247.37,0.322\n248.56,0.296\n249.75,0.271\n250.94,0.246\n252.13,0.221\n253.31,0.196\n254.67,0.175\n256.03,0.154\n257.39,0.137\n258.75,0.124\n260.11,0.112\n261.46,0.095\n262.99,0.087\n264.52,0.078\n266.05,0.074\n267.58,0.066\n269.11,0.057\n270.63,0.053\n272.16,0.053\n273.69,0.049\n##END=\n"