b'##TITLE=DL-Glutamic acid\n##JCAMP-DX=4.24\n##DATA TYPE=UV/VIS SPECTRUM\n##ORIGIN=INSTITUTE OF ENERGY PROBLEMS OF CHEMICAL PHYSICS, RAS\n##OWNER=INEP CP RAS, NIST OSRD\nCollection (C) 2007 copyright by the U.S. Secretary of Commerce\non behalf of the United States of America. All rights reserved.\n##CAS REGISTRY NO=617-65-2\n##MOLFORM=C5H9NO4\n##MP=200\n##SOURCE REFERENCE=RAS UV No. 19957\n##$NIST SQUIB=1966PER/BRAb10/8\n##$NIST SOURCE=TYUGLMTE\n##SPECTROMETER/DATA SYSTEM=Zeiss PMQ II\n##XUNITS=Wavelength (nm)\n##YUNITS=Logarithm epsilon\n##XFACTOR=1.0\n##YFACTOR=1.0\n##FIRSTX=182.67\n##LASTX=242.81\n##FIRSTY=3.694\n##MAXX=242.81\n##MINX=182.67\n##MAXY=3.694\n##MINY=1.122\n##NPOINTS=120\n##$REF AUTHOR=Perkampus, H.-H.; Braunschweig, T.H.\n##$REF JOURNAL=UV atlas of organic compounds\n##$REF VOLUME=1\n##$REF PAGE=B10/8\n##$REF DATE=1966\n##XYPOINTS=(XY..XY)\n182.67,3.694\n182.74,3.691\n182.81,3.688\n182.88,3.686\n182.95,3.683\n183.02,3.680\n183.10,3.677\n183.17,3.675\n183.24,3.672\n183.31,3.669\n183.38,3.665\n183.45,3.664\n183.53,3.661\n183.60,3.657\n183.67,3.654\n183.74,3.653\n183.96,3.621\n184.39,3.600\n184.83,3.579\n185.27,3.555\n185.71,3.531\n186.15,3.507\n186.59,3.481\n187.04,3.453\n187.49,3.424\n187.94,3.395\n188.39,3.360\n188.85,3.329\n189.30,3.297\n189.76,3.264\n190.22,3.235\n190.69,3.206\n191.15,3.177\n191.62,3.153\n192.09,3.128\n192.57,3.105\n193.04,3.083\n193.52,3.060\n194.00,3.038\n194.48,3.020\n194.97,3.003\n195.46,2.987\n195.95,2.972\n196.44,2.960\n196.93,2.947\n197.43,2.934\n197.93,2.921\n198.43,2.907\n198.94,2.891\n199.45,2.875\n199.96,2.857\n200.47,2.841\n200.98,2.825\n201.50,2.809\n202.02,2.795\n202.55,2.780\n203.07,2.766\n203.60,2.755\n204.13,2.740\n204.67,2.726\n205.20,2.711\n205.75,2.697\n206.29,2.684\n206.83,2.668\n207.38,2.654\n207.93,2.636\n208.49,2.620\n209.05,2.603\n209.61,2.587\n210.17,2.571\n210.74,2.555\n211.31,2.539\n211.88,2.518\n212.46,2.499\n213.03,2.484\n213.62,2.463\n214.20,2.447\n214.79,2.430\n215.38,2.409\n215.98,2.387\n216.58,2.369\n217.18,2.347\n217.78,2.329\n218.39,2.307\n219.00,2.286\n219.62,2.262\n220.24,2.239\n220.86,2.217\n221.48,2.193\n222.11,2.167\n222.75,2.140\n223.38,2.118\n224.02,2.094\n224.67,2.070\n225.31,2.041\n225.97,2.017\n226.62,1.990\n227.28,1.961\n227.94,1.930\n228.61,1.894\n229.28,1.860\n229.95,1.828\n230.63,1.796\n231.32,1.764\n232.00,1.732\n232.69,1.697\n233.39,1.655\n234.09,1.620\n234.79,1.583\n235.50,1.540\n236.21,1.501\n236.92,1.455\n237.64,1.407\n238.30,1.367\n239.01,1.331\n239.63,1.301\n240.36,1.265\n241.33,1.212\n241.89,1.180\n242.81,1.122\n##END=\n'