b'##TITLE=1-Propyne, 3-chloro-\n##JCAMP-DX=4.24\n##DATA TYPE=UV/VIS SPECTRUM\n##ORIGIN=INSTITUTE OF ENERGY PROBLEMS OF CHEMICAL PHYSICS, RAS\n##OWNER=INEP CP RAS, NIST OSRD\nCollection (C) 2007 copyright by the U.S. Secretary of Commerce\non behalf of the United States of America. All rights reserved.\n##CAS REGISTRY NO=624-65-7\n##MOLFORM=C3H3Cl\n##BP=57\n##SOURCE REFERENCE=RAS UV No. 19926\n##$NIST SQUIB=1966PER/BRAa2/2\n##$NIST SOURCE=TYUGLMTE\n##SPECTROMETER/DATA SYSTEM=Zeiss PMQ II\n##XUNITS=Wavelength (nm)\n##YUNITS=Logarithm epsilon\n##XFACTOR=1.0\n##YFACTOR=1.0\n##FIRSTX=182.24\n##LASTX=237.18\n##FIRSTY=3.782\n##MAXX=237.18\n##MINX=182.24\n##MAXY=3.809\n##MINY=1.015\n##NPOINTS=138\n##$REF AUTHOR=Perkampus, H.-H.; Braunschweig, T.H.\n##$REF JOURNAL=UV atlas of organic compounds\n##$REF VOLUME=1\n##$REF PAGE=A2/2\n##$REF DATE=1966\n##XYPOINTS=(XY..XY)\n182.24,3.782\n182.31,3.782\n182.38,3.784\n182.45,3.784\n182.52,3.786\n182.59,3.786\n182.66,3.788\n182.73,3.788\n182.80,3.788\n182.87,3.790\n182.94,3.790\n183.01,3.792\n183.08,3.792\n183.15,3.794\n183.22,3.794\n183.29,3.797\n183.36,3.797\n183.43,3.799\n183.50,3.799\n183.57,3.801\n183.64,3.801\n183.99,3.803\n184.35,3.805\n184.72,3.808\n185.07,3.807\n185.43,3.807\n185.79,3.807\n186.16,3.807\n186.52,3.807\n186.89,3.807\n187.25,3.807\n187.62,3.807\n187.99,3.809\n188.37,3.809\n188.74,3.809\n189.11,3.807\n189.49,3.805\n189.87,3.803\n190.25,3.801\n190.63,3.797\n191.01,3.792\n191.40,3.788\n191.78,3.782\n192.16,3.775\n192.51,3.768\n192.95,3.760\n193.32,3.754\n193.72,3.746\n194.13,3.739\n194.52,3.731\n194.92,3.720\n195.32,3.711\n195.72,3.701\n196.13,3.690\n196.53,3.679\n196.94,3.669\n197.35,3.658\n197.76,3.645\n198.17,3.633\n198.58,3.616\n199.00,3.601\n199.41,3.584\n199.83,3.562\n200.25,3.543\n200.68,3.522\n201.10,3.501\n201.53,3.479\n201.95,3.454\n202.38,3.430\n202.81,3.407\n203.25,3.383\n203.68,3.360\n204.12,3.330\n204.56,3.300\n205.00,3.277\n205.44,3.247\n205.88,3.219\n206.33,3.188\n206.78,3.158\n207.19,3.128\n207.68,3.096\n208.14,3.064\n208.59,3.036\n209.04,3.007\n209.51,2.972\n209.97,2.940\n210.44,2.911\n210.90,2.879\n211.37,2.847\n211.84,2.815\n212.31,2.781\n212.79,2.755\n213.26,2.723\n213.74,2.695\n214.22,2.666\n214.71,2.634\n215.19,2.604\n215.68,2.572\n216.17,2.542\n216.66,2.510\n217.16,2.474\n217.65,2.440\n218.15,2.401\n218.65,2.367\n219.16,2.338\n219.66,2.306\n220.17,2.274\n220.68,2.240\n221.19,2.210\n221.65,2.187\n222.23,2.152\n222.75,2.114\n223.27,2.082\n223.79,2.044\n224.27,2.008\n224.85,1.976\n225.38,1.939\n225.92,1.899\n226.46,1.858\n227.00,1.818\n227.54,1.777\n228.08,1.735\n228.63,1.692\n229.18,1.652\n229.73,1.616\n230.29,1.575\n230.85,1.530\n231.41,1.488\n231.97,1.439\n232.54,1.392\n233.11,1.343\n233.68,1.303\n234.22,1.263\n234.83,1.219\n235.42,1.173\n236.00,1.121\n236.61,1.067\n237.18,1.015\n##END=\n'