b'##TITLE=Disulfide, dimethyl\n##JCAMP-DX=4.24\n##DATA TYPE=UV/VIS SPECTRUM\n##ORIGIN=INSTITUTE OF ENERGY PROBLEMS OF CHEMICAL PHYSICS, RAS\n##OWNER=INEP CP RAS, NIST OSRD\nCollection (C) 2007 copyright by the U.S. Secretary of Commerce\non behalf of the United States of America. All rights reserved.\n##CAS REGISTRY NO=624-92-0\n##MOLFORM=C2H6S2\n##MP=-85\n##BP=109.8\n##SOURCE REFERENCE=RAS UV No. 9109\n##$NIST SQUIB=1971BEA/HARi/12C\n##$NIST SOURCE=TSGMTE\n##SPECTROMETER/DATA SYSTEM=Zeiss PMQ II\n##XUNITS=Wavelength (nm)\n##YUNITS=Logarithm epsilon\n##XFACTOR=1.000000\n##YFACTOR=1.000000\n##FIRSTX=199.3039\n##LASTX=298.9636\n##FIRSTY=3.51218\n##MAXX=298.964\n##MINX=199.304\n##MAXY=3.51218\n##MINY=1.65795\n##NPOINTS=1000\n##$REF AUTHOR=Beaven, G.H.; Harris, H.\n##$REF TITLE=Dimethyl disulphide\n##$REF BOOK TITLE=UV Atlas of Organic Compounds - Vol. 5\n##$REF PAGE=I/12\n##$REF DATE=1971\n##$REF PUBLISHER=Plenum Press\n##$REF LOCATION=New York\n##XYPOINTS=(XY..XY)\n199.3039,3.512180\n199.4263,3.499374\n199.4263,3.510131\n199.6862,3.488617\n199.6862,3.499374\n199.8086,3.488617\n199.9462,3.486569\n200.0686,3.484520\n200.0686,3.486569\n200.1909,3.473763\n200.1909,3.482215\n200.3285,3.469409\n200.3285,3.473763\n200.4509,3.467360\n200.4509,3.469409\n200.5732,3.460958\n200.5732,3.465311\n200.6955,3.456604\n200.6955,3.460958\n200.8332,3.452506\n200.8332,3.456604\n200.9555,3.448152\n200.9555,3.452506\n201.0778,3.446103\n201.0778,3.448152\n201.2155,3.441749\n201.2155,3.443798\n201.3378,3.437396\n201.3378,3.439444\n201.4601,3.433042\n201.4601,3.437396\n201.5978,3.428944\n201.5978,3.433042\n201.8425,3.422541\n201.8425,3.424590\n201.9801,3.416138\n201.9801,3.420236\n202.1024,3.416138\n202.2248,3.407431\n202.2248,3.413833\n202.3624,3.407431\n202.4847,3.403333\n202.4847,3.405382\n202.6071,3.396930\n202.6071,3.401028\n202.7447,3.394625\n202.7447,3.396930\n202.8670,3.390527\n202.8670,3.394625\n202.9894,3.386174\n202.9894,3.388222\n203.1270,3.381820\n203.1270,3.384125\n203.2493,3.377722\n203.2493,3.381820\n203.3717,3.375417\n203.3717,3.377722\n203.5093,3.371319\n203.5093,3.373368\n203.6316,3.366965\n203.6316,3.369014\n203.8916,3.360563\n203.8916,3.362612\n204.0140,3.356209\n204.0140,3.358514\n204.1363,3.352111\n204.1363,3.354160\n204.2739,3.347757\n204.2739,3.352111\n204.3963,3.345452\n204.3963,3.347757\n204.5186,3.341354\n204.5186,3.343403\n204.6562,3.337001\n204.6562,3.341354\n204.9009,3.330598\n204.9009,3.332647\n205.0232,3.326244\n205.0232,3.330598\n205.2832,3.317792\n205.2832,3.322146\n205.4056,3.315743\n205.4056,3.317792\n205.5432,3.311390\n205.5432,3.313438\n205.6655,3.307036\n205.6655,3.311390\n205.7879,3.304987\n205.7879,3.307036\n205.9255,3.300633\n205.9255,3.302938\n206.0478,3.298584\n206.0478,3.300633\n206.1702,3.294230\n206.1702,3.296535\n206.3078,3.290132\n206.3078,3.292181\n206.4301,3.287827\n206.4301,3.290132\n206.5525,3.283730\n206.5525,3.285779\n206.6901,3.279376\n206.6901,3.281425\n206.8124,3.275022\n206.8124,3.279376\n206.9348,3.272973\n206.9348,3.275022\n207.3171,3.262217\n207.3171,3.266570\n207.4547,3.260168\n207.4547,3.262217\n207.5771,3.255814\n207.5771,3.258119\n207.6994,3.251460\n207.6994,3.253765\n207.9594,3.243008\n207.9594,3.247362\n208.0817,3.240959\n208.0817,3.243008\n208.2193,3.236606\n208.2193,3.238654\n208.3417,3.232252\n208.3417,3.234557\n208.4640,3.230203\n208.4640,3.232252\n208.6016,3.225849\n208.6016,3.228154\n208.7240,3.221751\n208.7240,3.223800\n208.9839,3.213043\n208.9839,3.217397\n209.1063,3.208946\n209.1063,3.213043\n209.2286,3.206641\n209.2286,3.208946\n209.3510,3.200238\n209.3510,3.204592\n209.4886,3.198189\n209.4886,3.200238\n209.6109,3.193835\n209.6109,3.196140\n209.7333,3.189738\n209.7333,3.191786\n209.9932,3.181030\n209.9932,3.185384\n210.1156,3.178981\n210.1156,3.181030\n210.2532,3.172578\n210.2532,3.176932\n210.3755,3.170529\n210.3755,3.172578\n210.4979,3.166175\n210.4979,3.168224\n210.6355,3.159773\n210.6355,3.163870\n210.7578,3.157468\n210.7578,3.159773\n210.8802,3.153370\n210.8802,3.155419\n211.0178,3.149016\n211.0178,3.151065\n211.1401,3.144662\n211.1401,3.146967\n211.2625,3.138259\n211.2625,3.142613\n211.4001,3.136211\n211.4001,3.138259\n211.5225,3.129808\n211.5225,3.134162\n211.6448,3.127759\n211.6448,3.129808\n211.7824,3.123405\n211.7824,3.125454\n211.9048,3.119051\n211.9048,3.121356\n212.0271,3.114953\n212.0271,3.117002\n212.1647,3.108551\n212.1647,3.112648\n212.4094,3.099843\n212.4094,3.104197\n212.6694,3.091391\n212.6694,3.095745\n212.7917,3.087038\n212.7917,3.089343\n213.0517,3.078586\n213.0517,3.082940\n213.1740,3.074232\n213.1740,3.076537\n213.2964,3.067829\n213.2964,3.072183\n213.4340,3.065780\n213.4340,3.067829\n213.5563,3.059378\n213.5563,3.063475\n213.6787,3.055024\n213.6787,3.057073\n213.8163,3.050670\n213.8163,3.055024\n213.9386,3.046572\n213.9386,3.048621\n214.0610,3.037864\n214.0610,3.044267\n214.1986,3.035816\n214.1986,3.037864\n214.3209,3.029413\n214.3209,3.033767\n214.4433,3.023010\n214.4433,3.029413\n214.5809,3.020961\n214.7032,3.014559\n214.7032,3.020961\n214.8256,3.012254\n214.8256,3.014559\n214.9632,3.008156\n214.9632,3.010205\n215.0856,3.001753\n215.0856,3.005851\n215.2079,2.999448\n215.2079,3.001753\n215.3455,2.995350\n215.3455,2.997399\n215.4679,2.986643\n215.4679,2.993045\n215.5902,2.982545\n215.5902,2.984594\n215.7278,2.975886\n215.7278,2.980240\n215.9725,2.965385\n215.9725,2.971788\n216.2325,2.956678\n216.2325,2.961032\n216.4924,2.946177\n216.4924,2.952580\n216.6148,2.941823\n216.6148,2.943872\n216.7371,2.935421\n216.7371,2.939775\n216.8747,2.931067\n216.8747,2.933372\n216.9971,2.924664\n216.9971,2.929018\n217.1194,2.920566\n217.1194,2.922615\n217.2571,2.914164\n217.2571,2.918261\n217.3794,2.909810\n217.3794,2.911859\n217.5017,2.905456\n217.5017,2.909810\n217.6241,2.899053\n217.6241,2.903407\n217.7617,2.894955\n217.7617,2.897004\n217.8840,2.886248\n217.8840,2.892650\n218.1440,2.877796\n218.1440,2.881894\n218.2663,2.873442\n218.2663,2.875491\n218.3887,2.864990\n218.3887,2.871393\n218.6486,2.856283\n218.6486,2.860637\n218.7710,2.852185\n218.7710,2.854234\n218.9086,2.845782\n218.9086,2.849880\n219.0310,2.839379\n219.0310,2.843477\n219.1533,2.835026\n219.1533,2.837074\n219.2909,2.828623\n219.2909,2.832977\n219.4133,2.822220\n219.4133,2.826574\n219.5356,2.817866\n219.5356,2.822220\n219.6732,2.811464\n219.6732,2.815817\n219.7956,2.805061\n219.7956,2.811464\n219.9179,2.798658\n219.9179,2.803012\n220.0555,2.794304\n220.0555,2.796609\n220.1779,2.790206\n220.1779,2.794304\n220.3002,2.783804\n220.3002,2.790206\n220.4378,2.777401\n220.4378,2.781499\n220.5602,2.773047\n220.5602,2.777401\n220.6825,2.768693\n220.6825,2.770998\n220.8202,2.762291\n220.8202,2.766644\n220.9425,2.758193\n220.9425,2.760242\n221.0648,2.751790\n221.0648,2.755888\n221.2025,2.745387\n221.2025,2.751790\n221.3248,2.741033\n221.3248,2.743082\n221.4471,2.734631\n221.4471,2.741033\n221.5848,2.728228\n221.5848,2.734631\n221.7071,2.723874\n221.7071,2.728228\n221.8294,2.719776\n221.8294,2.721825\n221.9518,2.713374\n221.9518,2.717471\n222.0894,2.706971\n222.0894,2.711069\n222.2117,2.700312\n222.2117,2.706971\n222.3341,2.696214\n222.3341,2.700312\n222.4717,2.689812\n222.4717,2.696214\n222.5941,2.685458\n222.5941,2.689812\n222.7164,2.679055\n222.7164,2.685458\n222.8540,2.674701\n222.8540,2.679055\n222.9764,2.668298\n222.9764,2.672652\n223.0987,2.664201\n223.0987,2.666249\n223.2363,2.657798\n223.2363,2.661896\n223.3587,2.653444\n223.3587,2.655493\n223.4810,2.647041\n223.4810,2.651395\n223.6186,2.642687\n223.6186,2.644992\n223.7410,2.636285\n223.7410,2.640638\n223.8633,2.629882\n223.8633,2.634236\n224.0009,2.625784\n224.0009,2.629882\n224.1233,2.619381\n224.1233,2.623479\n224.2456,2.615027\n224.2456,2.617076\n224.3832,2.606320\n224.3832,2.612722\n224.5056,2.606320\n224.6279,2.599917\n224.6279,2.604271\n224.7656,2.593514\n224.7656,2.597868\n224.8879,2.589417\n224.8879,2.593514\n225.0102,2.585063\n225.0102,2.587112\n225.1479,2.580709\n225.1479,2.583014\n225.2702,2.572257\n225.2702,2.578660\n225.3925,2.570208\n225.3925,2.572257\n225.5302,2.563805\n225.5302,2.567903\n225.6525,2.559452\n225.6525,2.563805\n225.7748,2.555098\n225.7748,2.557403\n225.9125,2.551000\n225.9125,2.553049\n226.0348,2.542292\n226.0348,2.548695\n226.1571,2.538195\n226.1571,2.542292\n226.2795,2.533841\n226.2795,2.535890\n226.4171,2.529487\n226.4171,2.531792\n226.5395,2.523084\n226.5395,2.527438\n226.6618,2.514632\n226.6618,2.523084\n226.7994,2.514632\n226.9218,2.510279\n226.9218,2.512327\n227.0441,2.503876\n227.0441,2.510279\n227.1817,2.501827\n227.1817,2.503876\n227.3041,2.499522\n227.4264,2.495424\n227.4264,2.499522\n227.5640,2.489022\n227.5640,2.493119\n227.6864,2.486716\n227.6864,2.489022\n227.8087,2.480314\n227.8087,2.484668\n227.9463,2.478265\n227.9463,2.480314\n228.0687,2.473911\n228.0687,2.476216\n228.1910,2.467508\n228.1910,2.471862\n228.3287,2.465459\n228.3287,2.467508\n228.4510,2.461106\n228.4510,2.463411\n228.5733,2.461106\n228.7110,2.457008\n228.7110,2.459057\n228.8333,2.452654\n228.8333,2.454703\n228.9556,2.448300\n228.9556,2.452654\n229.0933,2.441897\n229.0933,2.446251\n229.2156,2.437800\n229.2156,2.439848\n229.3379,2.433446\n229.3379,2.435495\n229.4756,2.427043\n229.4756,2.431141\n229.7202,2.420640\n229.7202,2.422689\n229.8579,2.416286\n229.8579,2.418335\n229.9802,2.414237\n229.9802,2.416286\n230.1026,2.411933\n230.1026,2.414237\n230.2402,2.407835\n230.2402,2.409884\n230.3625,2.405530\n230.3625,2.407835\n230.6072,2.399127\n230.6072,2.401432\n230.7448,2.395029\n230.7448,2.397078\n230.8672,2.395029\n230.9895,2.388627\n230.9895,2.392724\n231.1271,2.388627\n231.2495,2.384273\n231.2495,2.386321\n231.3718,2.379919\n231.3718,2.382224\n231.5094,2.377870\n231.6318,2.375821\n231.6318,2.377870\n231.7541,2.373516\n231.7541,2.375821\n231.8917,2.369418\n231.8917,2.371467\n232.0141,2.367113\n232.0141,2.369418\n232.1364,2.365065\n232.1364,2.367113\n232.2741,2.363016\n232.2741,2.365065\n232.3964,2.358662\n232.3964,2.360711\n232.5187,2.356613\n232.5187,2.358662\n232.6564,2.354308\n232.6564,2.356613\n232.7787,2.354308\n232.9010,2.350210\n232.9010,2.352259\n233.0387,2.347905\n233.0387,2.350210\n233.1610,2.347905\n233.4210,2.343807\n233.5433,2.341502\n233.5433,2.343807\n233.9256,2.335100\n234.1856,2.333051\n234.1856,2.335100\n234.3079,2.330746\n234.3079,2.333051\n234.4303,2.328697\n234.4303,2.330746\n234.5679,2.328697\n234.6902,2.326648\n234.8126,2.326648\n234.9349,2.324343\n235.1949,2.322294\n235.1949,2.324343\n235.3172,2.322294\n235.5772,2.317940\n235.8372,2.317940\n235.9595,2.315891\n236.6018,2.315891\n236.7241,2.313843\n236.9841,2.313843\n237.1064,2.311538\n239.5226,2.311538\n239.6449,2.313843\n240.1649,2.313843\n240.2872,2.315891\n240.9295,2.315891\n241.0518,2.317940\n241.4341,2.317940\n241.5565,2.320245\n241.9388,2.320245\n242.0764,2.322294\n242.4587,2.322294\n242.5810,2.324343\n242.8410,2.324343\n242.9633,2.326648\n243.4680,2.328697\n243.4680,2.326648\n243.7280,2.328697\n243.8503,2.330746\n244.2326,2.330746\n244.3549,2.333051\n244.4926,2.333051\n244.6149,2.335100\n244.9972,2.335100\n245.1196,2.337148\n245.5019,2.339453\n245.5019,2.337148\n245.6395,2.339453\n245.7618,2.341502\n246.0218,2.343807\n246.0218,2.341502\n246.1441,2.343807\n246.2665,2.345856\n246.5264,2.347905\n246.5264,2.345856\n246.9087,2.347905\n247.0311,2.350210\n247.1687,2.350210\n247.2911,2.352259\n247.4134,2.354308\n247.4134,2.352259\n247.5510,2.356613\n247.5510,2.354308\n247.9180,2.356613\n248.0557,2.358662\n248.3003,2.360711\n248.3003,2.358662\n248.4380,2.360711\n248.5603,2.363016\n248.6827,2.363016\n248.8203,2.365065\n248.9426,2.367113\n248.9426,2.365065\n249.2026,2.367113\n249.3249,2.369418\n249.4473,2.369418\n249.5849,2.371467\n249.7072,2.371467\n249.9672,2.375821\n250.2119,2.375821\n250.3495,2.377870\n250.5942,2.379919\n250.5942,2.377870\n250.8542,2.382224\n250.8542,2.379919\n250.9765,2.382224\n251.2365,2.386321\n251.4964,2.386321\n251.6188,2.388627\n251.8787,2.390675\n251.8787,2.388627\n252.1234,2.392724\n252.1234,2.390675\n252.2457,2.392724\n252.3834,2.395029\n252.5057,2.397078\n252.5057,2.395029\n252.7657,2.397078\n252.8880,2.399127\n253.1480,2.399127\n253.2703,2.401432\n253.3927,2.403481\n253.3927,2.401432\n253.5303,2.403481\n253.6526,2.405530\n253.9126,2.407835\n253.9126,2.405530\n254.2949,2.409884\n254.2949,2.407835\n254.5396,2.409884\n254.6772,2.411933\n254.7996,2.411933\n255.0595,2.416286\n255.3042,2.416286\n255.4418,2.418335\n255.8241,2.420640\n255.8241,2.418335\n256.0688,2.420640\n256.2064,2.422689\n256.3288,2.422689\n256.5735,2.427043\n256.9558,2.429092\n256.9558,2.427043\n257.3381,2.431141\n257.3381,2.429092\n257.5980,2.431141\n257.7204,2.433446\n257.9803,2.433446\n258.1027,2.435495\n258.8673,2.437800\n258.8673,2.435495\n259.0049,2.439848\n259.0049,2.437800\n259.1273,2.439848\n259.2496,2.441897\n259.3872,2.441897\n259.5096,2.444202\n259.8919,2.446251\n259.8919,2.444202\n260.3965,2.446251\n260.5342,2.448300\n261.1611,2.448300\n261.2835,2.450605\n261.4211,2.450605\n261.5434,2.452654\n263.5773,2.452654\n263.7149,2.454703\n263.9596,2.454703\n264.0973,2.452654\n266.1311,2.452654\n266.2535,2.450605\n266.5134,2.450605\n266.6358,2.448300\n267.0181,2.448300\n267.1404,2.446251\n267.4004,2.446251\n267.5227,2.444202\n268.0427,2.441897\n268.0427,2.444202\n268.1650,2.441897\n268.2873,2.439848\n268.6696,2.437800\n268.6696,2.439848\n269.0519,2.437800\n269.1896,2.435495\n269.3119,2.435495\n269.4342,2.433446\n269.5566,2.433446\n269.6942,2.431141\n269.9389,2.429092\n269.9389,2.431141\n270.1989,2.429092\n270.3212,2.427043\n270.5812,2.427043\n270.7035,2.424738\n270.8411,2.422689\n270.8411,2.424738\n270.9635,2.420640\n270.9635,2.422689\n271.2234,2.420640\n271.3458,2.418335\n271.6058,2.416286\n271.6058,2.418335\n271.7281,2.416286\n271.8504,2.414237\n271.9881,2.411933\n271.9881,2.414237\n272.1104,2.411933\n272.2327,2.409884\n272.3704,2.407835\n272.3704,2.409884\n272.6150,2.407835\n272.7527,2.405530\n272.8750,2.405530\n272.9973,2.403481\n273.1350,2.401432\n273.1350,2.403481\n273.2573,2.399127\n273.2573,2.401432\n273.3797,2.399127\n273.5020,2.397078\n273.7620,2.395029\n273.7620,2.397078\n273.8843,2.395029\n274.4042,2.386321\n274.6489,2.386321\n274.9089,2.382224\n275.0312,2.379919\n275.0312,2.382224\n275.1688,2.377870\n275.1688,2.379919\n275.2912,2.377870\n275.4135,2.375821\n275.5512,2.375821\n275.7958,2.369418\n275.7958,2.371467\n275.9335,2.369418\n276.0558,2.367113\n276.1781,2.365065\n276.1781,2.367113\n276.3158,2.363016\n276.3158,2.365065\n276.4381,2.360711\n276.4381,2.363016\n276.5604,2.358662\n276.5604,2.360711\n276.6981,2.356613\n276.9427,2.354308\n276.9427,2.356613\n277.0804,2.352259\n277.0804,2.354308\n277.2027,2.347905\n277.2027,2.350210\n277.3251,2.347905\n277.4627,2.345856\n277.5850,2.343807\n277.5850,2.345856\n277.7074,2.341502\n277.7074,2.343807\n277.8297,2.337148\n277.8297,2.339453\n277.9673,2.337148\n278.0897,2.335100\n278.2120,2.333051\n278.2120,2.335100\n278.4720,2.326648\n278.4720,2.328697\n278.5943,2.326648\n278.7319,2.324343\n278.8543,2.322294\n278.8543,2.324343\n278.9766,2.317940\n278.9766,2.320245\n279.1143,2.315891\n279.2366,2.313843\n279.2366,2.315891\n279.3589,2.311538\n279.3589,2.313843\n279.7412,2.305135\n279.8789,2.303086\n279.8789,2.305135\n280.0012,2.298732\n280.0012,2.301037\n280.1235,2.296683\n280.1235,2.298732\n280.2612,2.294634\n280.2612,2.296683\n280.3835,2.292329\n280.3835,2.294634\n280.5058,2.288232\n280.5058,2.290280\n281.0258,2.277475\n281.0258,2.279524\n281.1481,2.275426\n281.2705,2.273121\n281.2705,2.275426\n281.5304,2.264669\n281.5304,2.269023\n281.6528,2.264669\n281.9127,2.256218\n281.9127,2.260316\n282.0351,2.253913\n282.0351,2.256218\n282.2950,2.247510\n282.2950,2.249815\n282.6773,2.236754\n282.6773,2.241107\n282.7997,2.234705\n282.7997,2.236754\n282.9220,2.232656\n282.9220,2.234705\n283.0597,2.228302\n283.0597,2.230351\n283.1820,2.223948\n283.1820,2.226253\n283.3043,2.221899\n283.3043,2.223948\n283.4420,2.219850\n283.4420,2.221899\n283.5643,2.215496\n283.5643,2.217545\n283.8243,2.209094\n283.8243,2.211142\n283.9466,2.204740\n283.9466,2.207045\n284.0689,2.202691\n284.0689,2.204740\n284.2066,2.198337\n284.2066,2.202691\n284.3289,2.194239\n284.3289,2.196288\n284.4513,2.191934\n284.4513,2.194239\n284.5889,2.189885\n284.5889,2.191934\n284.7112,2.185532\n284.7112,2.187836\n284.8336,2.181434\n284.8336,2.183483\n284.9712,2.179129\n284.9712,2.181434\n285.0935,2.175031\n285.0935,2.177080\n285.3535,2.168628\n285.3535,2.170677\n285.4758,2.164275\n285.4758,2.166323\n285.5982,2.162226\n285.5982,2.164275\n285.7358,2.155567\n285.7358,2.159921\n285.8581,2.153518\n285.8581,2.155567\n285.9805,2.149164\n285.9805,2.153518\n286.1181,2.145066\n286.1181,2.147115\n286.2404,2.142761\n286.2404,2.145066\n286.3628,2.138664\n286.3628,2.142761\n286.4851,2.134310\n286.4851,2.136358\n286.6228,2.132261\n286.6228,2.134310\n286.7451,2.127907\n286.7451,2.129956\n286.8674,2.123553\n286.8674,2.125858\n287.0051,2.119455\n287.0051,2.121504\n287.1274,2.115101\n287.1274,2.117150\n287.2497,2.110748\n287.2497,2.113052\n287.5097,2.102296\n287.5097,2.106650\n287.6320,2.100247\n287.6320,2.102296\n287.7697,2.095893\n287.7697,2.097942\n287.8920,2.091539\n287.8920,2.093844\n288.0143,2.081039\n288.0143,2.089490\n288.1520,2.078734\n288.1520,2.081039\n288.2743,2.076685\n288.2743,2.078734\n288.3967,2.068233\n288.3967,2.074636\n288.5343,2.057477\n288.5343,2.065928\n288.6566,2.057477\n288.9166,2.053123\n289.0389,2.051074\n289.0389,2.053123\n289.1613,2.048769\n289.1613,2.051074\n289.2989,2.040317\n289.2989,2.046720\n289.4212,2.038268\n289.5436,2.035963\n289.5436,2.038268\n289.6812,2.029561\n289.6812,2.033914\n289.8035,2.021109\n289.8035,2.027512\n289.9259,2.021109\n290.0635,2.016755\n290.0635,2.019060\n290.1858,2.012658\n290.1858,2.016755\n290.3082,2.010353\n290.3082,2.012658\n290.4458,2.003950\n290.4458,2.008304\n290.5682,1.999852\n290.5682,2.001901\n290.8128,1.991145\n290.8128,1.995498\n291.0728,1.982693\n291.0728,1.987047\n291.1951,1.978339\n291.1951,1.982693\n291.3328,1.974241\n291.3328,1.976290\n291.4551,1.969887\n291.4551,1.974241\n291.5774,1.963485\n291.5774,1.967582\n291.7151,1.959131\n291.7151,1.963485\n291.9598,1.948374\n291.9598,1.954777\n292.0974,1.946325\n292.0974,1.948374\n292.2197,1.939922\n292.2197,1.944276\n292.3421,1.935569\n292.3421,1.937873\n292.4797,1.929166\n292.4797,1.933520\n292.6020,1.927117\n292.6020,1.929166\n292.7244,1.918665\n292.7244,1.925068\n292.8620,1.916360\n292.8620,1.918665\n292.9843,1.907909\n292.9843,1.914311\n293.1067,1.907909\n293.2443,1.901506\n293.2443,1.905860\n293.3666,1.897152\n293.3666,1.899457\n293.4890,1.888701\n293.4890,1.895103\n293.6266,1.886651\n293.6266,1.888701\n293.7489,1.877944\n293.7489,1.884347\n293.8713,1.875895\n293.8713,1.877944\n294.0089,1.869492\n294.0089,1.873590\n294.1313,1.865138\n294.1313,1.867187\n294.2536,1.858736\n294.2536,1.863090\n294.5136,1.847979\n294.5136,1.854382\n294.6359,1.845930\n294.6359,1.847979\n294.7735,1.839528\n294.7735,1.843882\n294.8959,1.835174\n294.8959,1.837479\n295.0182,1.831076\n295.0182,1.833125\n295.1405,1.824673\n295.1405,1.828771\n295.2782,1.820319\n295.2782,1.822368\n295.4005,1.815965\n295.4005,1.818270\n295.5228,1.809562\n295.5228,1.813916\n295.6605,1.805465\n295.6605,1.809562\n295.7828,1.799062\n295.7828,1.803160\n295.9052,1.794708\n295.9052,1.796757\n296.0428,1.788306\n296.0428,1.792659\n296.1651,1.783951\n296.1651,1.788306\n296.2875,1.775500\n296.2875,1.781903\n296.5474,1.764743\n296.5474,1.771146\n296.8074,1.753987\n296.8074,1.760389\n296.9297,1.749889\n296.9297,1.751938\n297.0521,1.743486\n297.0521,1.747584\n297.1897,1.739132\n297.1897,1.741182\n297.3120,1.732730\n297.3120,1.737084\n297.4344,1.726327\n297.4344,1.730681\n297.5720,1.721973\n297.5720,1.726327\n297.6943,1.717875\n297.6943,1.719924\n297.8167,1.711472\n297.8167,1.715571\n297.9543,1.705070\n297.9543,1.709167\n298.0767,1.698667\n298.0767,1.702765\n298.1990,1.692008\n298.1990,1.698667\n298.3366,1.685606\n298.3366,1.689959\n298.4590,1.681508\n298.4590,1.685606\n298.5813,1.675105\n298.5813,1.679203\n298.7189,1.670751\n298.7189,1.675105\n298.8413,1.664349\n298.8413,1.668703\n298.9636,1.657946\n298.9636,1.664349\n##END=\n'