b'##TITLE=2,3-Butanedione\n##JCAMP-DX=4.24\n##DATA TYPE=UV/VIS SPECTRUM\n##ORIGIN=INSTITUTE OF ENERGY PROBLEMS OF CHEMICAL PHYSICS, RAS\n##OWNER=INEP CP RAS, NIST OSRD\nCollection (C) 2007 copyright by the U.S. Secretary of Commerce\non behalf of the United States of America. All rights reserved.\n##CAS REGISTRY NO=625-34-3\n##MOLFORM=C4H6O2\n##MP=- 2.4\n##BP=88\n##SOURCE REFERENCE=RAS UV No. 10570\n##$NIST SQUIB=1953COH/BLO264\n##$NIST SOURCE=TYUGLMTE\n##SPECTROMETER/DATA SYSTEM=n.i.g.\n##XUNITS=Wavelength (nm)\n##YUNITS=Logarithm epsilon\n##XFACTOR=1.0\n##YFACTOR=1.0\n##FIRSTX=223.76\n##LASTX=476.21\n##FIRSTY=1.769\n##MAXX=476.21\n##MINX=223.76\n##MAXY=1.769\n##MINY=0.064\n##NPOINTS=131\n##$REF AUTHOR=Cohen, S.G.; Blout, E.R.\n##$REF JOURNAL=J. Polymer Sci.\n##$REF VOLUME=3\n##$REF PAGE=264\n##$REF DATE=1953\n##XYPOINTS=(XY..XY)\n223.76,1.769\n224.51,1.739\n226.47,1.663\n228.43,1.600\n230.39,1.528\n232.35,1.465\n234.31,1.402\n236.27,1.344\n238.24,1.272\n240.20,1.204\n242.16,1.169\n244.12,1.142\n246.08,1.124\n248.04,1.106\n249.88,1.098\n251.96,1.092\n253.92,1.092\n256.00,1.097\n257.81,1.104\n259.97,1.111\n261.77,1.122\n263.75,1.137\n265.69,1.155\n267.65,1.178\n269.61,1.218\n271.57,1.249\n273.53,1.276\n275.49,1.303\n277.45,1.321\n279.41,1.339\n281.37,1.357\n283.38,1.371\n285.29,1.380\n287.25,1.384\n289.22,1.384\n291.18,1.384\n293.14,1.380\n295.10,1.375\n297.06,1.366\n299.02,1.357\n300.98,1.339\n302.94,1.317\n304.90,1.299\n306.86,1.285\n308.82,1.263\n310.78,1.218\n312.75,1.178\n314.71,1.137\n316.67,1.083\n318.63,1.029\n320.59,0.980\n322.83,0.932\n324.45,0.889\n326.47,0.831\n328.43,0.769\n330.39,0.701\n332.35,0.643\n334.31,0.562\n336.27,0.499\n338.24,0.387\n340.20,0.292\n342.16,0.184\n344.12,0.126\n345.39,0.104\n347.53,0.085\n350.00,0.076\n352.17,0.089\n354.31,0.111\n356.98,0.159\n359.30,0.199\n361.08,0.230\n362.82,0.264\n364.80,0.295\n366.24,0.319\n368.04,0.346\n369.84,0.369\n371.57,0.391\n373.53,0.418\n375.49,0.445\n377.45,0.476\n379.41,0.503\n381.37,0.526\n383.33,0.553\n385.29,0.584\n387.25,0.611\n389.22,0.634\n391.18,0.665\n393.14,0.683\n395.10,0.706\n397.06,0.733\n399.02,0.755\n400.98,0.773\n402.94,0.796\n404.90,0.813\n406.86,0.831\n408.82,0.849\n410.78,0.863\n412.75,0.876\n414.69,0.893\n416.67,0.903\n418.63,0.917\n420.59,0.921\n422.55,0.930\n424.51,0.939\n426.47,0.944\n428.43,0.948\n430.39,0.957\n432.35,0.962\n434.31,0.962\n436.27,0.962\n438.24,0.957\n440.20,0.948\n442.16,0.930\n444.12,0.917\n446.08,0.903\n448.04,0.890\n450.00,0.881\n451.96,0.872\n453.92,0.863\n455.94,0.855\n457.92,0.844\n459.80,0.822\n461.76,0.778\n463.73,0.715\n465.69,0.647\n467.65,0.566\n469.61,0.472\n471.57,0.351\n473.53,0.243\n475.49,0.108\n476.21,0.064\n##END=\n'