b'##TITLE=Pyridine, 3-chloro-\n##JCAMP-DX=4.24\n##DATA TYPE=UV/VIS SPECTRUM\n##ORIGIN=INSTITUTE OF ENERGY PROBLEMS OF CHEMICAL PHYSICS, RAS\n##OWNER=INEP CP RAS, NIST OSRD\nCollection (C) 2007 copyright by the U.S. Secretary of Commerce\non behalf of the United States of America. All rights reserved.\n##CAS REGISTRY NO=626-60-8\n##MOLFORM=C5H4ClN\n##BP=148; 86(100)\n##SOURCE REFERENCE=RAS UV No. 2495\n##$NIST SQUIB=1954STE1077-1082\n##$NIST SOURCE=TSGMTE\n##SPECTROMETER/DATA SYSTEM=n.i.g.\n##XUNITS=Wavelength (nm)\n##YUNITS=Logarithm epsilon\n##XFACTOR=1.000000\n##YFACTOR=1.000000\n##FIRSTX=267.2709\n##LASTX=210.4049\n##FIRSTY=2.48495\n##MAXX=267.271\n##MINX=210.405\n##MAXY=3.38081\n##MINY=2.48495\n##NPOINTS=594\n##$REF AUTHOR=Stephenson, H.P.\n##$REF TITLE=Solution spectra and oscillator strengths of electronic transitions of pyridine and some monosubstituted derivatives\n##$REF JOURNAL=J. Chem. Phys.\n##$REF VOLUME=22\n##$REF NUMBER=6\n##$REF PAGE=1077-1082\n##$REF DATE=1954\n##XYPOINTS=(XY..XY)\n267.2709,2.484955\n267.1588,2.494189\n267.1554,2.485227\n267.0363,2.512927\n267.0324,2.503263\n266.8234,2.554882\n266.8126,2.530084\n266.1374,2.623006\n266.1339,2.616362\n266.0158,2.637012\n266.0123,2.630580\n265.9120,2.656700\n265.9013,2.637203\n265.6870,2.687968\n265.6763,2.669853\n265.5763,2.693776\n265.1527,2.764680\n265.1455,2.754449\n265.0354,2.779456\n265.0282,2.769571\n264.9324,2.793728\n264.9252,2.784167\n264.7122,2.802800\n264.6060,2.829358\n264.5953,2.816353\n264.5071,2.846560\n264.4965,2.834067\n264.4007,2.854486\n264.3939,2.846678\n264.2879,2.870753\n264.2773,2.858947\n264.1821,2.878711\n264.1783,2.874575\n264.0798,2.890105\n264.0726,2.882464\n263.9668,2.904682\n263.9562,2.893775\n263.8613,2.912048\n263.8575,2.908218\n263.7626,2.925905\n263.7520,2.915524\n263.6499,2.939346\n263.6393,2.929286\n263.5551,2.955833\n263.5412,2.943007\n263.4605,2.971717\n263.4428,2.955925\n263.3480,2.983831\n263.3375,2.974760\n263.2392,2.986780\n262.1262,3.113283\n262.0325,3.124398\n262.0150,3.113347\n261.9390,3.135235\n261.9248,3.126534\n261.8311,3.145569\n261.8174,3.137326\n261.7377,3.155897\n261.7240,3.147849\n261.6510,3.169745\n261.6302,3.157883\n261.5301,3.171909\n260.8125,3.216517\n260.7128,3.221789\n260.7058,3.218246\n260.4895,3.227053\n260.4862,3.225409\n260.3867,3.230575\n260.3830,3.228740\n260.1603,3.233921\n260.0545,3.235782\n260.0508,3.233969\n259.9484,3.237436\n259.9451,3.235831\n259.7232,3.240928\n259.4946,3.242615\n259.4914,3.241029\n259.1545,3.242764\n258.9442,3.246208\n258.8254,3.247828\n258.8222,3.246261\n258.7170,3.247875\n258.6120,3.249483\n258.3858,3.251331\n258.3822,3.249582\n258.2778,3.251378\n258.1629,3.254522\n258.1596,3.252979\n257.9574,3.259400\n257.9542,3.257874\n257.8432,3.262676\n257.8399,3.261161\n257.7388,3.264230\n257.7356,3.262721\n257.6382,3.267463\n257.6350,3.265966\n257.5409,3.272155\n257.5340,3.269001\n257.4234,3.273681\n257.4202,3.272205\n257.3262,3.278306\n257.3198,3.275380\n257.2259,3.281437\n257.2191,3.278350\n257.1091,3.283112\n257.1055,3.281486\n257.0086,3.286029\n257.0054,3.284594\n256.9153,3.292117\n256.9053,3.287681\n256.7984,3.293575\n256.7952,3.292165\n256.7049,3.299385\n256.6949,3.295023\n256.6051,3.302369\n256.6019,3.300987\n256.4952,3.306705\n256.4885,3.303793\n256.3956,3.309638\n256.3920,3.308109\n256.2956,3.312384\n256.2924,3.311033\n256.0767,3.315324\n256.0036,3.329038\n255.9837,3.320853\n255.8943,3.333117\n255.8843,3.329082\n255.7023,3.341153\n255.6892,3.335917\n255.5968,3.346524\n255.5869,3.342612\n255.5010,3.350438\n255.4943,3.347806\n255.4085,3.355540\n255.3986,3.351708\n255.2965,3.358167\n255.2933,3.356952\n255.2041,3.363179\n255.1942,3.359415\n255.1022,3.364562\n255.0987,3.363215\n254.9937,3.368322\n254.9870,3.365796\n254.8916,3.369541\n254.8885,3.368357\n254.7932,3.372080\n254.7897,3.370756\n254.6814,3.374463\n254.6782,3.373293\n254.3671,3.379510\n254.3635,3.378208\n254.0533,3.379614\n253.9390,3.380806\n253.8315,3.379687\n253.5060,3.379796\n253.2786,3.377410\n253.2755,3.376248\n253.1682,3.374972\n253.1651,3.373803\n252.9382,3.371384\n252.9351,3.370205\n252.8285,3.369059\n252.8250,3.367726\n252.7185,3.366573\n252.7154,3.365382\n252.5957,3.364077\n252.5895,3.361677\n252.4828,3.360357\n252.4797,3.359149\n252.3765,3.359185\n252.3700,3.356605\n252.2540,3.356646\n252.2509,3.355427\n252.1449,3.354241\n252.0421,3.354278\n252.0386,3.352899\n251.9230,3.352940\n251.9199,3.351710\n251.8141,3.350514\n251.8107,3.349123\n251.7081,3.349160\n251.5897,3.347961\n251.4873,3.347999\n251.4842,3.346755\n251.3819,3.346792\n251.2634,3.345431\n251.1613,3.345469\n251.0562,3.344255\n250.6234,3.344415\n250.5248,3.345703\n250.3218,3.345778\n250.2112,3.347222\n250.1099,3.347259\n250.0117,3.348539\n249.8979,3.348581\n249.7999,3.349856\n249.7024,3.351282\n249.6990,3.349893\n249.5889,3.351324\n249.3935,3.353856\n249.2803,3.353897\n249.1831,3.355310\n249.0827,3.355346\n248.9727,3.356607\n248.4596,3.356794\n248.3443,3.355617\n248.1448,3.355690\n248.1414,3.354315\n248.0294,3.354356\n247.9268,3.353168\n247.9239,3.351938\n247.8244,3.351975\n247.6070,3.349431\n247.5078,3.349468\n247.5049,3.348229\n247.3900,3.346872\n247.3870,3.345625\n247.1828,3.343039\n247.1798,3.341781\n247.0653,3.340404\n247.0623,3.339138\n246.9606,3.337907\n246.9543,3.335197\n246.8527,3.333954\n246.8494,3.332509\n246.7478,3.331259\n246.7415,3.328507\n246.6307,3.328551\n246.6278,3.327250\n246.5264,3.325985\n246.5231,3.324512\n246.4248,3.324552\n246.4189,3.321922\n246.3083,3.321966\n246.3021,3.319155\n246.2010,3.317866\n246.1977,3.316365\n246.0967,3.315068\n246.0937,3.313726\n245.9802,3.312257\n245.9743,3.309551\n245.8764,3.309592\n245.8731,3.308063\n245.7724,3.306740\n243.0440,3.255043\n243.0412,3.253502\n242.8440,3.250302\n242.7367,3.250355\n242.7338,3.248797\n242.5372,3.245562\n242.5343,3.243987\n242.4273,3.244040\n242.4240,3.242261\n242.3261,3.240722\n242.2311,3.240770\n242.2282,3.239177\n242.0206,3.235875\n242.0145,3.232445\n241.9198,3.232494\n241.7130,3.229345\n241.7098,3.227505\n241.6124,3.225912\n241.6096,3.224264\n241.5001,3.222458\n241.4973,3.220797\n241.3027,3.217345\n241.2998,3.215664\n241.1907,3.213822\n241.1879,3.212127\n241.0909,3.210477\n241.0877,3.208555\n240.9909,3.206891\n240.9881,3.205169\n240.7825,3.201597\n240.7797,3.199854\n240.6827,3.197937\n240.6771,3.194413\n240.4721,3.190752\n240.4693,3.188964\n240.3725,3.186999\n240.3638,3.181339\n240.2586,3.181400\n240.1624,3.179629\n240.1596,3.177795\n240.0632,3.175778\n240.0604,3.173927\n239.8564,3.170088\n239.8536,3.168213\n239.7577,3.166387\n239.7546,3.164259\n239.5515,3.160572\n239.5483,3.158416\n239.4555,3.158473\n239.4499,3.154613\n239.2470,3.150599\n239.2411,3.146421\n239.1485,3.146480\n239.1457,3.144500\n239.0504,3.142571\n239.0472,3.140323\n238.8450,3.136174\n238.8422,3.134146\n238.7499,3.134207\n238.7471,3.132170\n238.6403,3.129937\n238.6348,3.125813\n238.5426,3.125876\n238.4475,3.123602\n238.4447,3.121514\n238.2434,3.117180\n238.2407,3.115062\n238.1489,3.115126\n238.1461,3.112997\n237.9454,3.108577\n237.9426,3.106416\n237.7422,3.101928\n237.7395,3.099734\n237.6480,3.099800\n237.6422,3.095101\n237.5508,3.095168\n237.4454,3.093014\n237.4337,3.083414\n237.3425,3.083483\n237.3398,3.081193\n237.2459,3.078960\n237.2428,3.076356\n237.1404,3.076435\n237.1349,3.071768\n236.9473,3.066896\n236.9445,3.064517\n236.8423,3.064597\n236.7485,3.061978\n236.7458,3.059572\n236.6524,3.057225\n236.6493,3.054487\n236.5474,3.054569\n236.5447,3.052121\n236.4542,3.052195\n236.4515,3.049734\n236.3579,3.047023\n236.3552,3.044532\n236.1575,3.039352\n236.1548,3.036817\n236.0646,3.036893\n236.0615,3.034024\n235.9686,3.031534\n235.9659,3.028953\n235.8646,3.029040\n235.8616,3.026118\n235.7716,3.026197\n235.7662,3.020954\n235.5694,3.015483\n234.3214,2.972805\n234.3187,2.969849\n234.1244,2.963690\n234.1217,2.960671\n234.0330,2.960762\n234.0301,2.957340\n233.9414,2.957432\n233.9361,2.951283\n233.8365,2.951387\n233.7451,2.947985\n233.7424,2.944854\n233.6540,2.944948\n233.6514,2.941795\n233.5520,2.941902\n233.5464,2.935126\n233.4555,2.931997\n233.3673,2.932095\n233.3643,2.928439\n233.2652,2.928549\n233.0839,2.922173\n233.0810,2.918432\n232.9931,2.918532\n232.9904,2.915181\n232.8890,2.911917\n232.8012,2.912019\n232.7983,2.908189\n232.7106,2.908292\n232.7080,2.904860\n232.6064,2.901084\n232.6038,2.897594\n232.5163,2.897699\n232.5136,2.894182\n232.3279,2.894408\n232.3223,2.886842\n232.2350,2.886950\n232.2323,2.883344\n232.1421,2.879362\n232.0441,2.879485\n231.9543,2.875927\n231.8673,2.876038\n231.8647,2.872340\n231.5849,2.860935\n231.4873,2.861064\n231.2085,2.849355\n231.2056,2.844928\n231.1191,2.845047\n231.0301,2.841194\n230.9329,2.841329\n230.9303,2.837322\n230.8440,2.837443\n230.7549,2.833014\n230.7523,2.828930\n230.6554,2.829068\n230.6528,2.824946\n230.5667,2.825070\n230.4778,2.820513\n230.2953,2.820780\n230.2927,2.816578\n230.1157,2.807770\n230.1131,2.803440\n229.9311,2.803718\n229.8430,2.799478\n229.7469,2.799627\n229.7440,2.794659\n229.6586,2.794793\n229.6560,2.790330\n229.5681,2.785958\n229.0283,2.772441\n229.0254,2.767151\n228.9274,2.762555\n228.8426,2.762699\n228.7554,2.758038\n226.9746,2.707505\n226.8888,2.702208\n226.7118,2.702558\n226.7090,2.696338\n226.6234,2.690902\n226.4469,2.691261\n226.4444,2.685590\n225.8415,2.680379\n225.6662,2.680747\n225.5813,2.675111\n225.4990,2.675287\n225.3190,2.663067\n224.9781,2.657767\n224.8042,2.658155\n224.3731,2.653002\n224.2889,2.646211\n224.0347,2.646797\n223.9511,2.640700\n223.7787,2.641103\n223.6953,2.634925\n223.5233,2.635334\n223.5206,2.628063\n223.4397,2.628259\n223.1069,2.629064\n222.8530,2.623132\n222.5119,2.623972\n222.4294,2.617543\n222.1795,2.618169\n222.0969,2.610806\n221.8477,2.611442\n221.7557,2.604849\n221.6762,2.605055\n221.4279,2.605699\n220.9306,2.600089\n220.1140,2.602247\n219.7031,2.603336\n219.6224,2.595715\n218.4962,2.598759\n218.4070,2.591970\n218.3298,2.592182\n218.0890,2.592846\n218.0143,2.600065\n217.7742,2.600716\n217.6856,2.593958\n217.6112,2.601159\n216.9737,2.610598\n216.9712,2.602898\n216.3469,2.612275\n216.1883,2.619405\n216.0277,2.619829\n215.9545,2.626617\n215.8036,2.627009\n215.7214,2.634514\n215.6484,2.641078\n215.6461,2.634706\n215.4885,2.641481\n215.4156,2.647941\n215.1837,2.655463\n215.1812,2.648524\n215.0291,2.667910\n214.9568,2.674724\n214.9543,2.668088\n214.7980,2.675097\n214.7256,2.681079\n214.6510,2.681252\n214.5694,2.687172\n214.4974,2.693692\n214.4949,2.687343\n214.3437,2.705104\n214.2694,2.705268\n214.1976,2.711524\n214.1141,2.711706\n214.0444,2.722483\n214.0421,2.717207\n213.9727,2.728497\n213.9702,2.722640\n213.8916,2.733811\n213.8894,2.728672\n213.8198,2.739041\n213.8176,2.733964\n213.7459,2.739193\n213.6674,2.749951\n213.6652,2.745000\n213.5958,2.754991\n213.5244,2.760575\n213.5219,2.755137\n213.4437,2.765512\n213.4414,2.760737\n213.3724,2.770963\n213.3700,2.765655\n213.2321,2.785649\n213.2296,2.780518\n213.0802,2.794906\n213.0758,2.785938\n213.0092,2.800002\n213.0067,2.795039\n212.8624,2.817998\n212.8577,2.808962\n212.7913,2.822311\n212.7891,2.818124\n212.7135,2.831215\n212.7113,2.827113\n212.6425,2.835399\n212.6403,2.831337\n212.5740,2.844026\n212.5718,2.840044\n212.4277,2.860319\n212.4233,2.852616\n212.3594,2.868469\n212.3572,2.864706\n212.2841,2.880145\n212.2773,2.868595\n212.2181,2.891503\n212.2134,2.883886\n212.1498,2.899093\n212.1452,2.891609\n212.0747,2.909984\n212.0701,2.902688\n212.0088,2.920597\n212.0042,2.913478\n211.9451,2.934189\n211.9361,2.920697\n211.8679,2.941086\n211.8633,2.934297\n211.8043,2.954061\n211.7975,2.944339\n211.7410,2.967032\n211.7317,2.954153\n211.6637,2.973063\n211.6594,2.967133\n211.6005,2.985487\n211.5937,2.976451\n211.5392,2.999994\n211.5302,2.988425\n211.4669,3.011692\n211.4602,3.003190\n211.4057,3.025363\n211.3968,3.014458\n211.3426,3.036395\n211.3358,3.028367\n211.2681,3.044361\n211.2635,3.039018\n211.2070,3.057056\n211.1980,3.046927\n211.1440,3.067321\n211.1348,3.057128\n211.0786,3.084251\n211.0650,3.069764\n211.0200,3.098336\n211.0089,3.086876\n210.9593,3.109835\n210.9504,3.100877\n210.9054,3.127533\n210.8894,3.112043\n210.8355,3.138049\n210.8266,3.129661\n210.7816,3.154656\n210.7660,3.140369\n210.7232,3.166662\n210.7119,3.156648\n210.6537,3.176512\n210.6448,3.168841\n210.5975,3.189729\n210.5841,3.178407\n210.5416,3.202772\n210.5282,3.191789\n210.4744,3.213540\n210.4631,3.204562\n210.4095,3.218848\n210.4049,3.215280\n##END=\n'