b'##TITLE=Pyridine, 3-bromo-\n##JCAMP-DX=4.24\n##DATA TYPE=UV/VIS SPECTRUM\n##ORIGIN=INSTITUTE OF ENERGY PROBLEMS OF CHEMICAL PHYSICS, RAS\n##OWNER=INEP CP RAS, NIST OSRD\nCollection (C) 2007 copyright by the U.S. Secretary of Commerce\non behalf of the United States of America. All rights reserved.\n##CAS REGISTRY NO=626-55-1\n##MOLFORM=C5H4BrN\n##MP=- 27.3\n##BP=173\n##SOURCE REFERENCE=RAS UV No. 12080\n##$NIST SQUIB=1955BRO/MCD3752\n##$NIST SOURCE=TYUGLMTE\n##SPECTROMETER/DATA SYSTEM=Cary spectrophotometer\n##XUNITS=Wavelength (nm)\n##YUNITS=Logarithm epsilon\n##XFACTOR=1.0\n##YFACTOR=1.0\n##FIRSTX=219.97\n##LASTX=283.22\n##FIRSTY=3.579\n##MAXX=283.22\n##MINX=219.97\n##MAXY=3.579\n##MINY=1.477\n##NPOINTS=378\n##$REF AUTHOR=Brown, H.C.; McDaniel, D.H.\n##$REF JOURNAL=J. Am. Chem. Soc.\n##$REF VOLUME=77\n##$REF PAGE=3752\n##$REF DATE=1955\n##XYPOINTS=(XY..XY)\n219.97,3.579\n220.64,3.543\n220.76,3.534\n220.91,3.521\n221.04,3.514\n221.17,3.501\n221.31,3.492\n221.44,3.483\n221.56,3.473\n221.70,3.459\n221.82,3.450\n221.97,3.441\n222.10,3.435\n222.24,3.426\n222.37,3.415\n222.50,3.406\n222.64,3.398\n222.77,3.393\n222.90,3.387\n223.04,3.378\n223.17,3.368\n223.32,3.358\n223.46,3.349\n223.57,3.343\n223.70,3.331\n223.85,3.319\n223.97,3.306\n224.10,3.291\n224.23,3.284\n224.37,3.278\n224.50,3.267\n224.63,3.262\n224.77,3.254\n224.91,3.244\n225.06,3.238\n225.17,3.231\n225.30,3.222\n225.46,3.212\n225.63,3.200\n225.79,3.186\n225.90,3.175\n225.97,3.170\n226.10,3.162\n226.23,3.152\n226.38,3.142\n226.50,3.135\n226.61,3.124\n226.75,3.110\n226.90,3.095\n228.10,3.001\n229.29,2.945\n229.65,2.930\n230.12,2.911\n230.54,2.900\n230.84,2.891\n231.07,2.884\n231.27,2.877\n231.57,2.866\n231.83,2.859\n232.08,2.855\n232.22,2.853\n232.36,2.853\n232.49,2.853\n232.62,2.851\n232.77,2.850\n232.89,2.849\n233.02,2.847\n233.16,2.844\n233.29,2.842\n233.42,2.840\n233.55,2.838\n233.69,2.836\n233.82,2.835\n233.95,2.834\n234.09,2.832\n234.22,2.832\n234.35,2.832\n234.50,2.832\n234.63,2.832\n234.78,2.832\n234.95,2.832\n235.05,2.832\n235.17,2.832\n235.34,2.832\n235.44,2.832\n235.55,2.832\n235.69,2.832\n235.82,2.832\n235.95,2.832\n236.09,2.832\n236.22,2.832\n236.35,2.832\n236.48,2.832\n236.61,2.832\n236.76,2.834\n236.89,2.837\n237.04,2.839\n237.68,2.849\n237.81,2.850\n237.97,2.851\n238.11,2.852\n238.27,2.853\n238.40,2.854\n238.50,2.855\n238.62,2.857\n238.77,2.858\n238.90,2.859\n239.01,2.861\n239.06,2.861\n239.28,2.865\n239.81,2.877\n239.95,2.880\n240.08,2.884\n240.21,2.886\n240.35,2.888\n240.49,2.890\n240.61,2.892\n240.76,2.895\n240.88,2.899\n241.01,2.903\n241.15,2.907\n241.34,2.911\n241.67,2.921\n241.81,2.924\n241.94,2.928\n242.08,2.931\n242.21,2.936\n242.34,2.940\n242.48,2.945\n242.67,2.952\n242.85,2.960\n243.04,2.965\n243.16,2.968\n243.28,2.970\n243.41,2.975\n243.54,2.983\n243.68,2.989\n243.81,2.998\n243.98,3.004\n244.10,3.009\n244.21,3.012\n244.34,3.015\n244.47,3.018\n244.61,3.022\n244.74,3.026\n244.87,3.032\n245.02,3.037\n245.18,3.043\n245.29,3.046\n245.42,3.049\n245.54,3.053\n245.67,3.058\n245.81,3.063\n245.93,3.067\n246.07,3.073\n246.31,3.083\n246.47,3.089\n246.60,3.095\n246.74,3.097\n246.90,3.100\n247.02,3.103\n247.14,3.106\n247.27,3.108\n247.40,3.111\n247.53,3.114\n247.67,3.122\n247.80,3.128\n247.96,3.134\n248.07,3.139\n248.23,3.147\n248.34,3.152\n248.47,3.156\n248.60,3.160\n248.74,3.162\n248.87,3.165\n249.00,3.168\n249.13,3.172\n249.28,3.179\n249.40,3.185\n249.53,3.189\n249.69,3.193\n249.80,3.195\n249.93,3.198\n250.07,3.204\n250.20,3.209\n250.33,3.213\n250.47,3.220\n250.60,3.227\n250.73,3.232\n250.90,3.237\n251.02,3.241\n251.13,3.246\n251.26,3.251\n251.40,3.256\n252.46,3.291\n252.60,3.297\n252.78,3.303\n252.89,3.307\n253.00,3.312\n253.15,3.317\n253.26,3.320\n253.40,3.326\n253.53,3.334\n253.66,3.341\n253.79,3.346\n253.93,3.351\n254.06,3.358\n254.19,3.363\n254.33,3.368\n254.46,3.374\n254.59,3.379\n254.73,3.385\n254.86,3.390\n254.99,3.394\n255.13,3.400\n255.26,3.405\n255.39,3.409\n255.53,3.415\n255.66,3.420\n255.79,3.424\n255.93,3.429\n256.06,3.434\n256.19,3.438\n256.32,3.443\n256.46,3.448\n256.59,3.452\n256.72,3.457\n256.86,3.461\n256.99,3.465\n257.12,3.470\n257.26,3.474\n257.38,3.476\n257.52,3.479\n257.66,3.483\n257.79,3.486\n257.92,3.491\n258.06,3.495\n258.19,3.499\n258.32,3.503\n258.46,3.507\n258.59,3.510\n258.72,3.512\n258.85,3.514\n258.99,3.515\n259.13,3.516\n259.25,3.518\n259.39,3.521\n259.52,3.523\n259.65,3.525\n259.79,3.527\n259.94,3.529\n260.06,3.531\n260.19,3.533\n260.32,3.534\n260.45,3.536\n260.59,3.538\n260.72,3.538\n260.85,3.540\n260.99,3.543\n261.12,3.546\n261.25,3.548\n261.38,3.549\n261.52,3.550\n261.65,3.551\n261.78,3.552\n261.92,3.555\n262.05,3.557\n262.19,3.558\n262.31,3.559\n262.45,3.560\n262.58,3.562\n262.72,3.564\n262.85,3.565\n262.98,3.566\n263.12,3.567\n263.25,3.569\n263.38,3.570\n263.52,3.572\n263.65,3.574\n263.78,3.574\n263.91,3.574\n264.05,3.574\n264.18,3.575\n264.31,3.576\n264.45,3.577\n264.58,3.577\n264.71,3.578\n264.85,3.578\n264.98,3.578\n265.12,3.576\n265.25,3.573\n265.38,3.572\n265.50,3.570\n265.64,3.567\n265.78,3.563\n265.92,3.561\n266.04,3.559\n266.18,3.557\n266.31,3.555\n266.44,3.552\n266.58,3.551\n266.71,3.547\n266.84,3.542\n267.00,3.537\n267.13,3.534\n267.25,3.530\n267.38,3.526\n267.51,3.524\n267.64,3.521\n267.77,3.518\n267.90,3.514\n268.04,3.510\n268.18,3.506\n268.30,3.503\n268.44,3.500\n268.58,3.496\n268.71,3.491\n268.84,3.486\n269.00,3.479\n269.13,3.473\n269.24,3.469\n269.37,3.464\n269.51,3.458\n269.64,3.454\n269.78,3.451\n269.93,3.447\n270.04,3.443\n270.17,3.439\n270.31,3.437\n270.47,3.432\n270.57,3.428\n270.71,3.423\n270.84,3.420\n271.01,3.416\n271.15,3.411\n271.26,3.406\n271.38,3.403\n271.50,3.401\n271.67,3.399\n271.79,3.396\n271.92,3.391\n272.04,3.386\n272.17,3.380\n272.30,3.377\n272.44,3.372\n272.57,3.366\n272.70,3.361\n272.84,3.356\n272.98,3.351\n273.10,3.345\n273.24,3.337\n273.35,3.331\n273.47,3.323\n273.64,3.310\n273.74,3.302\n273.94,3.289\n274.03,3.282\n274.17,3.267\n274.42,3.240\n275.01,3.168\n275.51,3.092\n276.07,2.991\n276.74,2.867\n277.18,2.766\n277.77,2.632\n278.25,2.491\n278.43,2.439\n278.58,2.405\n278.99,2.316\n279.37,2.232\n279.71,2.166\n280.11,2.093\n280.39,2.037\n280.56,2.000\n280.83,1.954\n281.51,1.826\n282.45,1.631\n283.22,1.477\n##END=\n'