b'##TITLE=6-Methyluracil\n##JCAMP-DX=4.24\n##DATA TYPE=UV/VIS SPECTRUM\n##ORIGIN=INSTITUTE OF ENERGY PROBLEMS OF CHEMICAL PHYSICS, RAS\n##OWNER=INEP CP RAS, NIST OSRD\nCollection (C) 2007 copyright by the U.S. Secretary of Commerce\non behalf of the United States of America. All rights reserved.\n##CAS REGISTRY NO=626-48-2\n##MOLFORM=C5H6N2O2\n##BP=270-80 dec\n##SOURCE REFERENCE=RAS UV No. 11062\n##$NIST SQUIB=1951MAR/WAL1004\n##$NIST SOURCE=TYUGLMTE\n##SPECTROMETER/DATA SYSTEM=Beckman DU\n##XUNITS=Wavelength (nm)\n##YUNITS=Logarithm epsilon\n##XFACTOR=1.0\n##YFACTOR=1.0\n##FIRSTX=225.2\n##LASTX=287.61\n##FIRSTY=3.295\n##MAXX=287.61\n##MINX=225.2\n##MAXY=3.976\n##MINY=2.13\n##NPOINTS=42\n##$REF AUTHOR=Marshall, J.R.; Walker, J.\n##$REF JOURNAL=J. Chem. Soc.\n##$REF PAGE=1004\n##$REF DATE=1951\n##XYPOINTS=(XY..XY)\n225.20,3.295\n225.56,3.286\n226.07,3.277\n226.50,3.270\n226.94,3.265\n227.39,3.261\n227.84,3.257\n228.24,3.253\n228.73,3.249\n229.49,3.243\n231.19,3.249\n232.91,3.277\n234.72,3.332\n236.46,3.388\n238.03,3.446\n239.72,3.512\n241.45,3.582\n242.98,3.641\n245.13,3.716\n246.65,3.768\n248.29,3.820\n251.71,3.894\n253.39,3.924\n255.36,3.949\n258.55,3.976\n260.26,3.976\n261.97,3.976\n263.68,3.976\n265.38,3.962\n267.15,3.933\n268.80,3.894\n270.50,3.850\n272.22,3.799\n273.76,3.705\n275.64,3.507\n277.33,3.331\n279.06,3.129\n280.77,2.931\n282.48,2.720\n284.21,2.495\n285.95,2.297\n287.61,2.130\n##END=\n'