b'##TITLE=4-Pyridinol\n##JCAMP-DX=4.24\n##DATA TYPE=UV/VIS SPECTRUM\n##ORIGIN=INSTITUTE OF ENERGY PROBLEMS OF CHEMICAL PHYSICS, RAS\n##OWNER=INEP CP RAS, NIST OSRD\nCollection (C) 2007 copyright by the U.S. Secretary of Commerce\non behalf of the United States of America. All rights reserved.\n##CAS REGISTRY NO=626-64-2\n##MOLFORM=C5H5NO\n##MP=149.8\n##BP=> 350; 257/ 10 mm\n##SOURCE REFERENCE=RAS UV No. 12132\n##$NIST SQUIB=1955BLI/REZ1781\n##$NIST SOURCE=TYUGLMTE\n##SPECTROMETER/DATA SYSTEM=n.i.g.\n##XUNITS=Wavelength (nm)\n##YUNITS=Logarithm epsilon\n##XFACTOR=1.0\n##YFACTOR=1.0\n##FIRSTX=245.58\n##LASTX=312.36\n##FIRSTY=3.136\n##MAXX=312.36\n##MINX=245.58\n##MAXY=4.152\n##MINY=0.415\n##NPOINTS=85\n##$REF AUTHOR=Bliznyukov, V.I.; Reznikov, V.M.\n##$REF JOURNAL=Zhur. Obshchei Khim. (in Rus.)\n##$REF VOLUME=25\n##$REF PAGE=1781\n##$REF DATE=1955\n##XYPOINTS=(XY..XY)\n245.58,3.136\n245.91,3.140\n246.24,3.144\n246.57,3.152\n246.89,3.157\n247.22,3.161\n247.55,3.165\n248.53,3.230\n249.51,3.278\n250.49,3.347\n251.48,3.372\n252.46,3.421\n253.44,3.486\n254.42,3.526\n255.40,3.591\n256.39,3.636\n257.37,3.697\n258.35,3.741\n259.33,3.798\n260.31,3.843\n261.30,3.896\n262.28,3.981\n263.26,3.989\n264.24,4.062\n265.22,4.099\n266.21,4.119\n267.19,4.135\n268.17,4.144\n269.15,4.152\n270.13,4.152\n271.12,4.148\n272.10,4.144\n273.08,4.140\n274.06,4.123\n275.04,4.103\n276.03,4.046\n277.01,3.993\n277.99,3.896\n278.97,3.811\n279.95,3.705\n280.93,3.611\n281.92,3.490\n282.90,3.368\n283.88,3.246\n284.86,3.124\n285.84,3.002\n286.83,2.880\n288.14,2.734\n288.79,2.616\n289.45,2.499\n290.10,2.385\n290.75,2.267\n291.41,2.149\n292.06,2.035\n292.72,1.918\n293.37,1.804\n294.03,1.735\n294.68,1.686\n295.34,1.613\n295.99,1.568\n296.65,1.512\n297.30,1.459\n297.96,1.426\n298.61,1.377\n299.27,1.341\n299.92,1.296\n300.57,1.248\n301.23,1.219\n301.88,1.183\n302.54,1.150\n303.19,1.113\n303.85,1.097\n304.50,1.044\n305.16,1.012\n305.81,0.983\n306.47,0.931\n307.12,0.882\n307.78,0.854\n308.43,0.793\n309.08,0.752\n309.74,0.667\n310.39,0.646\n311.05,0.561\n311.70,0.504\n312.36,0.415\n##END=\n'