b"##TITLE=Butane, 1-(methylthio)-\n##JCAMP-DX=4.24\n##DATA TYPE=UV/VIS SPECTRUM\n##ORIGIN=INSTITUTE OF ENERGY PROBLEMS OF CHEMICAL PHYSICS, RAS\n##OWNER=INEP CP RAS, NIST OSRD\nCollection (C) 2007 copyright by the U.S. Secretary of Commerce\non behalf of the United States of America. All rights reserved.\n##CAS REGISTRY NO=628-29-5\n##MOLFORM=C5H12S\n##BP=123.5\n##SOURCE REFERENCE=RAS UV No. 20108\n##$NIST SQUIB=1969BOL/99\n##$NIST SOURCE=TYUGLMTE\n##SPECTROMETER/DATA SYSTEM=unknown\n##XUNITS=Wavelength (nm)\n##YUNITS=Logarithm epsilon\n##XFACTOR=1.0\n##YFACTOR=1.0\n##FIRSTX=210.32\n##LASTX=283.42\n##FIRSTY=2.986\n##MAXX=283.42\n##MINX=210.32\n##MAXY=3.003\n##MINY=0.217\n##NPOINTS=86\n##$REF AUTHOR=Bol'shakov, G.F.; et al.\n##$REF JOURNAL=Ultraviolet spectra of heteroorganic compounds\n##$REF PAGE=99\n##$REF DATE=1969\n##XYPOINTS=(XY..XY)\n210.32,2.986\n210.49,2.990\n210.66,2.990\n210.83,2.990\n211.00,2.990\n211.17,2.995\n211.34,2.995\n211.51,2.995\n211.67,2.995\n211.84,2.999\n212.01,2.999\n212.18,2.999\n212.35,2.999\n212.52,3.003\n212.69,3.003\n212.86,3.003\n213.37,2.999\n214.38,2.986\n215.40,2.974\n216.41,2.953\n217.43,2.911\n218.44,2.852\n219.46,2.769\n220.47,2.626\n221.49,2.480\n222.50,2.367\n223.52,2.275\n224.53,2.179\n225.55,2.099\n226.56,2.020\n227.58,1.932\n228.60,1.852\n229.61,1.777\n230.63,1.714\n231.64,1.652\n232.66,1.589\n233.67,1.530\n234.69,1.472\n235.70,1.413\n236.72,1.363\n237.73,1.309\n238.75,1.267\n239.76,1.221\n240.78,1.171\n241.79,1.137\n242.81,1.091\n243.82,1.049\n244.84,1.012\n245.85,0.978\n246.87,0.945\n247.88,0.903\n248.90,0.865\n249.91,0.840\n250.93,0.807\n251.95,0.781\n252.96,0.744\n253.98,0.719\n254.99,0.698\n256.01,0.677\n257.02,0.656\n258.04,0.631\n259.05,0.614\n260.07,0.585\n261.08,0.560\n262.10,0.543\n263.11,0.522\n264.13,0.505\n265.14,0.489\n266.16,0.472\n267.17,0.459\n268.19,0.438\n269.20,0.422\n270.22,0.405\n271.23,0.392\n272.25,0.380\n273.26,0.359\n274.28,0.338\n275.30,0.330\n276.31,0.317\n277.33,0.296\n278.34,0.288\n279.36,0.275\n280.37,0.258\n281.39,0.246\n282.40,0.233\n283.42,0.217\n##END=\n"