b'##TITLE=Diethyl diselenide\n##JCAMP-DX=4.24\n##DATA TYPE=UV/VIS SPECTRUM\n##ORIGIN=INSTITUTE OF ENERGY PROBLEMS OF CHEMICAL PHYSICS, RAS\n##OWNER=INEP CP RAS, NIST OSRD\nCollection (C) 2007 copyright by the U.S. Secretary of Commerce\non behalf of the United States of America. All rights reserved.\n##CAS REGISTRY NO=628-39-7\n##MOLFORM=C4H10Se2\n##SOURCE REFERENCE=RAS UV No. 13220\n##$NIST SQUIB=1962BER/SCH1159\n##$NIST SOURCE=TYUGLMTE\n##SPECTROMETER/DATA SYSTEM=n.i.g.\n##XUNITS=Wavelength (nm)\n##YUNITS=Logarithm epsilon\n##XFACTOR=1.0\n##YFACTOR=1.0\n##FIRSTX=207.89\n##LASTX=408.85\n##FIRSTY=2.938\n##MAXX=408.85\n##MINX=207.89\n##MAXY=2.938\n##MINY=1.201\n##NPOINTS=54\n##$REF AUTHOR=Bergson, G.; Schotte, L.\n##$REF JOURNAL=Acta Chem. Scand.\n##$REF VOLUME=16\n##$REF PAGE=1159\n##$REF DATE=1962\n##XYPOINTS=(XY..XY)\n207.89,2.938\n208.61,2.891\n210.28,2.812\n211.92,2.760\n213.56,2.709\n215.07,2.671\n219.38,2.563\n223.68,2.483\n227.99,2.432\n232.30,2.361\n234.66,2.312\n236.60,2.263\n238.50,2.236\n240.91,2.213\n245.22,2.203\n249.52,2.206\n253.83,2.213\n258.13,2.247\n261.84,2.290\n264.40,2.343\n266.75,2.385\n271.05,2.445\n275.36,2.493\n279.67,2.530\n283.97,2.563\n288.28,2.584\n292.58,2.597\n296.89,2.601\n301.20,2.597\n305.50,2.584\n309.81,2.563\n314.11,2.533\n318.42,2.506\n322.73,2.466\n327.03,2.425\n331.34,2.378\n335.65,2.331\n339.95,2.277\n344.26,2.216\n348.56,2.166\n352.87,2.102\n357.18,2.044\n361.48,1.980\n365.79,1.913\n370.10,1.849\n374.40,1.788\n378.71,1.724\n383.01,1.656\n387.32,1.586\n391.63,1.515\n395.93,1.434\n400.24,1.356\n404.55,1.275\n408.85,1.201\n##END=\n'