b'##TITLE=Urea, tetramethyl-\n##JCAMP-DX=4.24\n##DATA TYPE=UV/VIS SPECTRUM\n##ORIGIN=INSTITUTE OF ENERGY PROBLEMS OF CHEMICAL PHYSICS, RAS\n##OWNER=INEP CP RAS, NIST OSRD\nCollection (C) 2007 copyright by the U.S. Secretary of Commerce\non behalf of the United States of America. All rights reserved.\n##CAS REGISTRY NO=632-22-4\n##MOLFORM=C5H12N2O\n##MP=-1.2\n##BP=176.5\n##SOURCE REFERENCE=RAS UV No. 3072\n##$NIST SQUIB=1963LUT/DIR1059-1068\n##$NIST SOURCE=TSGMTE\n##SPECTROMETER/DATA SYSTEM=n.i.g.\n##XUNITS=Wavelength (nm)\n##YUNITS=Logarithm epsilon\n##XFACTOR=1.000000\n##YFACTOR=1.000000\n##FIRSTX=210.6403\n##LASTX=250.4495\n##FIRSTY=2.20639\n##MAXX=250.45\n##MINX=210.64\n##MAXY=3.27716\n##MINY=0.204391\n##NPOINTS=693\n##$REF AUTHOR=Luttringhaus, A.; Dirksen, H.-W.\n##$REF TITLE=Tetramethylharnstoff als losungsmittel und reaktionspartner\n##$REF JOURNAL=Angew. Chem.\n##$REF VOLUME=75\n##$REF NUMBER=22\n##$REF PAGE=1059-1068\n##$REF DATE=1963\n##XYPOINTS=(XY..XY)\n210.6403,2.206392\n210.6427,2.180031\n210.7174,2.233600\n210.7193,2.213630\n210.7946,2.260009\n210.7965,2.240039\n210.8824,2.280034\n210.8842,2.260063\n210.9596,2.306443\n210.9615,2.286472\n211.0367,2.333651\n211.0393,2.306491\n211.1239,2.360066\n211.1264,2.333705\n211.2011,2.386475\n211.2036,2.360114\n211.2789,2.406494\n211.2801,2.393713\n211.3561,2.433702\n211.3586,2.406542\n211.4445,2.446537\n211.4457,2.433756\n211.5216,2.473745\n211.5235,2.453775\n211.5994,2.493764\n211.6013,2.473793\n211.6866,2.520179\n211.6885,2.500208\n211.7644,2.540198\n211.7656,2.527416\n211.8428,2.553826\n211.8441,2.540245\n211.9300,2.580241\n211.9319,2.560270\n212.0078,2.600259\n212.0090,2.587478\n212.0856,2.620278\n212.0868,2.607497\n212.1734,2.640302\n212.1746,2.627521\n212.2512,2.660321\n212.2524,2.647540\n212.3290,2.680340\n212.3302,2.667558\n212.4168,2.700364\n212.4180,2.687583\n212.4946,2.720383\n212.4958,2.707602\n212.5724,2.740401\n212.5743,2.720431\n212.6602,2.760426\n212.6614,2.747645\n212.7386,2.774054\n212.7392,2.767663\n212.8164,2.794072\n212.8176,2.781291\n212.9042,2.814097\n212.9060,2.794126\n212.9826,2.827725\n212.9838,2.814145\n213.0604,2.847744\n213.0617,2.834164\n213.1488,2.861378\n213.1494,2.854188\n213.2260,2.887787\n213.2284,2.861425\n213.3044,2.901415\n213.3056,2.887835\n213.3928,2.914250\n213.3934,2.907859\n213.4712,2.927878\n213.4725,2.914298\n213.5496,2.941506\n213.5503,2.934316\n213.6374,2.961530\n213.6387,2.947950\n213.7159,2.974360\n213.7171,2.961578\n213.7943,2.987987\n213.7956,2.974407\n213.8821,3.008012\n213.8833,2.994432\n213.9605,3.021640\n213.9617,3.008060\n214.0390,3.034469\n214.0396,3.028079\n214.1174,3.048097\n214.1180,3.041706\n214.2057,3.061731\n214.2064,3.054542\n214.2841,3.075359\n214.2848,3.068170\n214.3626,3.088188\n214.3638,3.075407\n214.4510,3.101822\n214.4516,3.095432\n214.5294,3.115450\n214.5307,3.101870\n214.6968,3.135523\n214.6975,3.128333\n214.7759,3.141961\n214.7765,3.135571\n214.8543,3.155589\n214.8550,3.148400\n214.9428,3.168424\n214.9434,3.162034\n215.0218,3.175662\n215.0225,3.168472\n215.1009,3.182100\n215.1015,3.175710\n215.2689,3.195782\n215.3480,3.202221\n215.3486,3.195830\n215.4370,3.208665\n215.4376,3.202275\n215.5160,3.215903\n215.5951,3.222341\n215.5957,3.215950\n215.6842,3.228786\n215.7638,3.228833\n215.8428,3.236071\n215.9319,3.242515\n215.9325,3.236125\n216.0110,3.248954\n216.2593,3.256293\n216.2599,3.249104\n216.3390,3.256341\n216.4280,3.262786\n216.6770,3.262935\n216.7561,3.269374\n217.1644,3.269620\n217.2534,3.276863\n217.7514,3.277162\n217.8317,3.270021\n218.4990,3.270422\n218.5793,3.264080\n218.7486,3.264182\n218.8289,3.257839\n218.9086,3.257887\n218.9989,3.250751\n219.0785,3.250799\n219.0791,3.244409\n219.1588,3.244457\n219.2491,3.238120\n219.3287,3.238168\n219.4091,3.231026\n219.4987,3.231080\n219.4993,3.224690\n219.6587,3.224785\n219.6593,3.218395\n219.7390,3.218443\n219.8293,3.211307\n219.8299,3.204917\n219.9095,3.204965\n219.9898,3.198622\n220.0795,3.198676\n220.0801,3.191486\n220.1598,3.191534\n220.3303,3.178855\n220.3310,3.171666\n220.4903,3.171761\n220.4909,3.165371\n220.5806,3.165425\n220.5812,3.159034\n220.6608,3.159082\n220.6615,3.151893\n220.7418,3.145550\n220.8314,3.145604\n220.9921,3.132120\n221.0817,3.132174\n221.0823,3.125783\n221.1626,3.119440\n221.2422,3.119488\n221.2429,3.112299\n221.3326,3.112353\n221.3332,3.105962\n221.4128,3.106010\n221.4931,3.099667\n221.4938,3.092478\n221.5834,3.092532\n221.7440,3.079847\n221.8336,3.079900\n221.8343,3.072711\n221.9140,3.072759\n221.9146,3.066368\n221.9942,3.066416\n221.9949,3.059227\n222.0851,3.052890\n222.1648,3.052938\n222.1654,3.046547\n222.2451,3.046595\n222.2458,3.039406\n222.3354,3.039460\n222.3360,3.033069\n222.4157,3.033117\n222.4163,3.026727\n222.4960,3.026775\n222.4966,3.019585\n222.5769,3.013242\n222.6665,3.013296\n222.6671,3.006906\n222.8278,2.993422\n222.9174,2.993475\n222.9180,2.987085\n222.9977,2.987133\n222.9983,2.979943\n223.0780,2.979991\n223.0786,2.973601\n223.1683,2.973655\n223.1689,2.967264\n223.2485,2.967312\n223.3289,2.960170\n223.3295,2.953780\n223.4191,2.953834\n223.4197,2.947443\n223.4994,2.947491\n223.5797,2.940350\n223.5803,2.933959\n223.6700,2.934013\n223.7503,2.927670\n223.7509,2.920481\n223.8306,2.920529\n223.8312,2.914138\n223.9208,2.914192\n224.0011,2.907849\n224.0018,2.900660\n224.0821,2.894317\n224.1717,2.894371\n224.1723,2.887981\n224.2520,2.888029\n224.2526,2.880839\n224.3323,2.880887\n224.3329,2.874496\n224.5838,2.854675\n224.6734,2.854729\n224.6740,2.848339\n224.8346,2.834855\n224.8352,2.828464\n224.9249,2.828518\n224.9256,2.821329\n225.0052,2.821376\n225.0058,2.814986\n225.0855,2.815034\n225.0861,2.808643\n225.2567,2.795165\n225.3364,2.795213\n225.3370,2.788822\n225.4166,2.788870\n225.4173,2.781681\n225.5070,2.781735\n225.5075,2.775344\n225.6682,2.761860\n225.7578,2.761914\n225.7591,2.748334\n225.8388,2.748382\n225.8394,2.741991\n225.9196,2.735648\n226.0093,2.735702\n226.0099,2.728513\n226.0896,2.728561\n226.1699,2.722218\n226.1705,2.715828\n226.4214,2.696007\n226.5110,2.696061\n226.5123,2.682481\n226.5919,2.682529\n226.6722,2.676186\n226.6729,2.668996\n226.7625,2.669050\n226.7631,2.662660\n226.8428,2.662708\n226.9231,2.656365\n226.9237,2.649176\n227.0943,2.636496\n227.0949,2.629307\n227.1746,2.629355\n227.1752,2.622964\n227.2648,2.623018\n227.2654,2.616627\n227.3458,2.609486\n227.4255,2.609534\n227.4267,2.596753\n227.5163,2.596806\n227.5170,2.589617\n227.5967,2.589665\n227.5972,2.583274\n227.6775,2.576932\n227.7672,2.576986\n227.7678,2.569796\n227.8481,2.563454\n227.8487,2.557063\n227.9284,2.557111\n227.9291,2.549921\n228.1799,2.530101\n228.1805,2.523710\n228.2608,2.517367\n228.3504,2.517421\n228.3511,2.510232\n228.4308,2.510280\n228.4314,2.503889\n228.5117,2.496748\n228.5123,2.490357\n228.6026,2.484020\n228.6822,2.484068\n228.6829,2.476879\n228.7626,2.476927\n228.7632,2.470536\n228.8534,2.464199\n228.8541,2.457010\n228.9338,2.457058\n229.0140,2.450715\n229.0146,2.444325\n229.2655,2.424504\n229.2662,2.417314\n229.3558,2.417368\n229.3564,2.410978\n229.4361,2.411026\n229.4367,2.404635\n229.6073,2.391157\n229.6079,2.384766\n229.6882,2.377625\n229.7679,2.377673\n229.7691,2.364891\n229.8594,2.357756\n229.9391,2.357804\n229.9397,2.351413\n230.1103,2.337935\n230.1109,2.331545\n230.2715,2.318060\n230.3611,2.318114\n230.3617,2.311724\n230.5223,2.298239\n230.5229,2.291849\n230.6126,2.291903\n230.6132,2.285512\n230.6929,2.285560\n230.6941,2.271980\n230.7738,2.272028\n230.7744,2.265637\n230.9450,2.252159\n231.0247,2.252207\n231.0259,2.238627\n231.1056,2.238675\n231.1062,2.232284\n231.1964,2.225948\n231.2761,2.225996\n231.2768,2.218806\n231.3571,2.212464\n231.3577,2.205274\n231.4480,2.198937\n231.5277,2.198985\n231.5283,2.192595\n231.6079,2.192643\n231.6086,2.185453\n231.7791,2.172774\n231.7798,2.165584\n231.8595,2.165632\n231.8601,2.159242\n231.9497,2.159296\n231.9510,2.145716\n232.0306,2.145763\n232.0312,2.139373\n232.1115,2.133030\n232.2012,2.133084\n232.2018,2.125895\n232.2815,2.125943\n232.2827,2.113162\n232.3624,2.113209\n232.4527,2.106074\n232.4533,2.099683\n232.5330,2.099731\n232.5336,2.093340\n232.7041,2.079863\n232.7047,2.073472\n232.7844,2.073520\n232.7851,2.066330\n232.8648,2.066378\n232.8654,2.059988\n232.9556,2.053651\n232.9563,2.046462\n233.2874,2.020298\n233.2880,2.013907\n233.4586,2.000429\n233.5383,2.000477\n233.5395,1.986897\n233.6192,1.986945\n233.7095,1.980608\n233.7101,1.974218\n233.7897,1.974266\n233.7904,1.967076\n233.8701,1.967124\n233.8713,1.954343\n234.0419,1.940864\n234.1215,1.940913\n234.1228,1.927332\n234.2025,1.927381\n234.2038,1.913801\n234.3731,1.913902\n234.3737,1.907512\n234.4533,1.907560\n234.4546,1.893980\n234.5443,1.894033\n234.5449,1.887643\n234.6245,1.887691\n234.6251,1.881300\n234.7957,1.867822\n234.7963,1.861432\n234.8767,1.854290\n234.9563,1.854338\n234.9569,1.847948\n235.0472,1.841610\n235.0478,1.834421\n235.2987,1.814600\n235.3784,1.814648\n235.3796,1.801867\n235.4593,1.801915\n235.4599,1.794726\n235.7108,1.774904\n235.7114,1.768514\n235.9622,1.748693\n235.9628,1.742302\n236.0525,1.742357\n236.0532,1.735167\n236.1334,1.728824\n236.2131,1.728872\n236.2137,1.722482\n236.3843,1.709004\n236.3849,1.702613\n236.4652,1.695471\n236.5549,1.695525\n236.5555,1.689135\n236.6357,1.682792\n236.7154,1.682840\n236.7167,1.669260\n236.7964,1.669308\n236.7970,1.662917\n236.9676,1.649439\n236.9682,1.642250\n237.0479,1.642297\n237.0485,1.635907\n237.2994,1.616086\n237.3000,1.609696\n237.3903,1.602560\n237.3909,1.596169\n237.4705,1.596218\n237.6411,1.582739\n237.6417,1.576348\n237.7220,1.570006\n237.7227,1.562816\n237.8024,1.562865\n237.8030,1.556474\n237.8926,1.556528\n237.8932,1.550137\n237.9729,1.550186\n237.9741,1.536605\n238.0538,1.536653\n238.2244,1.523175\n238.2256,1.510394\n238.3059,1.503253\n238.3956,1.503306\n238.3962,1.496916\n238.4759,1.496963\n238.4765,1.490572\n238.5561,1.490620\n238.5568,1.483430\n238.7273,1.470751\n238.7280,1.463562\n238.8077,1.463611\n238.8083,1.457220\n238.8985,1.450883\n238.8992,1.443693\n238.9794,1.437351\n238.9800,1.430960\n239.0597,1.431008\n239.2303,1.417530\n239.2309,1.411140\n239.4015,1.397662\n239.4812,1.397709\n239.4824,1.384129\n239.5621,1.384178\n239.6424,1.377834\n239.6430,1.371443\n239.8939,1.350823\n239.8945,1.344434\n239.9842,1.344487\n239.9848,1.338096\n240.0644,1.338146\n240.0651,1.330955\n240.1448,1.331004\n240.1460,1.318222\n240.4871,1.291264\n240.4877,1.284875\n240.5680,1.278532\n240.6477,1.278580\n240.6484,1.271391\n240.8189,1.258711\n240.8196,1.251521\n240.8992,1.251570\n240.8998,1.245179\n240.9895,1.245234\n240.9901,1.238844\n241.1507,1.225358\n241.1520,1.211777\n241.2416,1.211833\n241.4021,1.199146\n241.4028,1.191957\n241.5733,1.179279\n241.5740,1.172089\n241.6537,1.172136\n241.6543,1.165746\n241.7439,1.165799\n241.7445,1.159411\n241.8249,1.152267\n241.8255,1.145877\n241.9051,1.145926\n241.9057,1.139536\n241.9954,1.139589\n241.9960,1.132401\n242.1566,1.119714\n242.1573,1.112525\n242.2369,1.112571\n242.2375,1.106181\n242.3272,1.106235\n242.3278,1.099846\n242.4081,1.092703\n242.4087,1.086314\n242.4884,1.086360\n242.4890,1.079969\n242.5786,1.080024\n242.5793,1.072834\n242.6590,1.072882\n242.6603,1.059302\n242.7399,1.059351\n242.7405,1.052959\n242.9111,1.039482\n242.9117,1.033090\n242.9914,1.033138\n243.0816,1.026803\n243.0823,1.019615\n243.1626,1.013271\n243.1632,1.006881\n243.2429,1.006928\n243.2435,0.999739\n243.3338,0.993401\n243.3344,0.987009\n243.4140,0.987058\n243.4147,0.979871\n243.4944,0.979917\n243.4956,0.967136\n243.5852,0.967192\n243.6656,0.960047\n243.6662,0.953658\n243.8367,0.940178\n243.8373,0.933791\n243.9170,0.933836\n243.9176,0.927447\n243.9980,0.920306\n244.0876,0.920358\n244.0888,0.907578\n244.3397,0.887758\n244.3403,0.880568\n244.5009,0.867880\n244.5022,0.854300\n244.6702,0.867986\n244.6709,0.860793\n244.6709,0.860793\n244.6715,0.854403\n244.6721,0.848010\n244.7524,0.840871\n244.7530,0.834478\n244.8433,0.828144\n244.9229,0.828189\n244.9236,0.821002\n245.0842,0.808319\n245.0848,0.801129\n245.1751,0.794795\n245.2547,0.794836\n245.2554,0.787652\n245.3357,0.781310\n245.3363,0.774918\n245.5890,0.735128\n245.7583,0.735224\n245.8387,0.728086\n245.8405,0.708115\n245.9295,0.715360\n245.9308,0.701775\n246.0105,0.701827\n246.0117,0.688242\n246.0901,0.701870\n246.1798,0.701930\n246.1804,0.695534\n246.1810,0.688349\n246.1816,0.681955\n246.2619,0.675613\n246.2626,0.668423\n246.3423,0.668470\n246.3429,0.662087\n246.4325,0.662134\n246.4331,0.655743\n246.5128,0.655791\n246.5134,0.648604\n246.5937,0.642257\n246.5943,0.635876\n246.6840,0.635926\n246.6846,0.628736\n246.7643,0.628787\n246.7649,0.622390\n246.8446,0.622442\n246.8452,0.616055\n246.9355,0.608911\n246.9361,0.602527\n247.0158,0.602570\n247.0164,0.596179\n247.0967,0.589044\n247.0973,0.582654\n247.1870,0.582700\n247.1875,0.576307\n247.2679,0.569175\n247.2685,0.562780\n247.3482,0.562828\n247.3488,0.556435\n247.4391,0.549298\n247.4397,0.542913\n247.5194,0.542962\n247.5200,0.536571\n247.5996,0.536622\n247.6003,0.529430\n247.6899,0.529482\n247.6905,0.523096\n247.7708,0.516747\n247.7715,0.509552\n247.8512,0.509606\n247.8524,0.496030\n248.0229,0.483345\n248.0236,0.476165\n248.1033,0.476208\n248.1836,0.469866\n248.2732,0.469910\n248.2745,0.456336\n248.3542,0.456381\n248.3554,0.443607\n248.4350,0.443654\n248.4357,0.436465\n248.5259,0.430123\n248.5272,0.416541\n248.6069,0.416591\n248.6075,0.410203\n248.6866,0.416641\n248.6878,0.403858\n248.6884,0.396670\n248.8559,0.416740\n248.8589,0.383995\n248.8596,0.376796\n248.9386,0.384031\n248.9399,0.370458\n248.9405,0.364063\n249.1079,0.384138\n249.1086,0.376960\n249.1883,0.376996\n249.1889,0.370606\n249.1895,0.364213\n249.1920,0.337060\n249.2804,0.350694\n249.2823,0.330718\n249.3601,0.350732\n249.3613,0.337160\n249.3619,0.330779\n249.3625,0.324385\n249.5306,0.337260\n249.5312,0.330880\n249.5318,0.324488\n249.5325,0.317290\n249.6128,0.310948\n249.6134,0.304555\n249.6937,0.297410\n249.6943,0.291036\n249.7846,0.284679\n249.8642,0.284746\n249.8649,0.277540\n249.9446,0.277586\n249.9465,0.257631\n250.0348,0.271261\n250.0367,0.251297\n250.0373,0.244895\n250.1955,0.257775\n250.1961,0.251395\n250.1967,0.244994\n250.1973,0.237795\n250.2870,0.237870\n250.3672,0.231521\n250.3685,0.217931\n250.4482,0.217984\n250.4495,0.204391\n##END=\n'