b'##TITLE=2-thiophenesulfonamide\n##JCAMP-DX=4.24\n##DATA TYPE=UV/VIS SPECTRUM\n##ORIGIN=INSTITUTE OF ENERGY PROBLEMS OF CHEMICAL PHYSICS, RAS\n##OWNER=INEP CP RAS, NIST OSRD\nCollection (C) 2007 copyright by the U.S. Secretary of Commerce\non behalf of the United States of America. All rights reserved.\n##CAS REGISTRY NO=6339-87-3\n##MOLFORM=C4H5NO2S2\n##BP=147\n##SOURCE REFERENCE=RAS UV No. 23596\n##$NIST SQUIB=1974ARC/611\n##$NIST SOURCE=TYUGLMTE\n##SPECTROMETER/DATA SYSTEM=Perkin-Elmer-Hitachi EPS-3T\n##XUNITS=Wavelength (nm)\n##YUNITS=Logarithm epsilon\n##XFACTOR=1.0\n##YFACTOR=1.0\n##FIRSTX=210.738\n##LASTX=267.149\n##FIRSTY=2.887\n##MAXX=267.149\n##MINX=210.738\n##MAXY=3.859\n##MINY=2.853\n##NPOINTS=59\n##$REF AUTHOR=Arcoria, A.; et al.\n##$REF JOURNAL=Spectrochim. Acta\n##$REF VOLUME=30A\n##$REF PAGE=611\n##$REF DATE=1974\n##XYPOINTS=(XY..XY)\n210.738,2.887\n211.738,2.963\n212.738,3.036\n213.738,3.106\n214.738,3.170\n215.738,3.230\n216.738,3.284\n217.738,3.335\n218.623,3.378\n219.623,3.424\n220.623,3.468\n221.623,3.510\n222.623,3.551\n223.623,3.589\n224.623,3.626\n225.623,3.660\n226.623,3.692\n227.623,3.721\n228.623,3.747\n229.623,3.770\n230.406,3.787\n231.406,3.807\n232.406,3.823\n233.406,3.836\n234.406,3.846\n235.406,3.853\n236.406,3.858\n237.406,3.859\n238.406,3.858\n239.406,3.854\n240.406,3.847\n241.406,3.838\n242.406,3.827\n243.406,3.815\n244.406,3.804\n245.379,3.793\n246.379,3.788\n247.379,3.781\n248.379,3.773\n249.379,3.763\n250.379,3.752\n251.379,3.739\n252.379,3.724\n253.379,3.706\n254.379,3.684\n255.379,3.657\n256.379,3.625\n257.379,3.588\n258.379,3.546\n259.379,3.499\n260.379,3.449\n261.124,3.406\n261.149,3.405\n262.149,3.339\n263.149,3.275\n264.149,3.196\n265.149,3.095\n266.149,2.976\n267.149,2.853\n##END=\n'