b'##TITLE=Pyrrole-2-carboxylic acid\n##JCAMP-DX=4.24\n##DATA TYPE=UV/VIS SPECTRUM\n##ORIGIN=INSTITUTE OF ENERGY PROBLEMS OF CHEMICAL PHYSICS, RAS\n##OWNER=INEP CP RAS, NIST OSRD\nCollection (C) 2007 copyright by the U.S. Secretary of Commerce\non behalf of the United States of America. All rights reserved.\n##CAS REGISTRY NO=634-97-9\n##MOLFORM=C5H5NO2\n##MP=208.5 dec\n##SOURCE REFERENCE=RAS UV No. 12553\n##$NIST SQUIB=1956HUH/BRO2013\n##$NIST SOURCE=TYUGLMTE\n##SPECTROMETER/DATA SYSTEM=n.i.g.\n##XUNITS=Wavelength (nm)\n##YUNITS=Logarithm epsilon\n##XFACTOR=1.0\n##YFACTOR=1.0\n##FIRSTX=215.35\n##LASTX=272.44\n##FIRSTY=4.193\n##MAXX=272.44\n##MINX=215.35\n##MAXY=4.847\n##MINY=3.603\n##NPOINTS=140\n##$REF AUTHOR=Huhn, R.; Brossmer, R.\n##$REF JOURNAL=Chem. Ber.\n##$REF VOLUME=89\n##$REF PAGE=2013\n##$REF DATE=1956\n##XYPOINTS=(XY..XY)\n215.35,4.193\n215.75,4.198\n216.14,4.203\n216.54,4.209\n216.99,4.216\n217.32,4.222\n217.72,4.232\n218.11,4.242\n218.50,4.254\n218.88,4.268\n219.36,4.281\n219.81,4.294\n220.19,4.305\n220.47,4.313\n220.87,4.325\n221.26,4.338\n221.65,4.350\n222.02,4.360\n222.49,4.372\n222.94,4.383\n223.23,4.391\n223.60,4.400\n224.02,4.411\n224.41,4.423\n224.80,4.435\n225.20,4.445\n225.59,4.457\n225.98,4.467\n226.35,4.475\n226.71,4.484\n227.10,4.494\n227.50,4.505\n227.95,4.516\n228.55,4.530\n229.08,4.543\n229.64,4.553\n230.36,4.565\n231.09,4.580\n231.50,4.587\n231.89,4.595\n232.28,4.602\n232.68,4.609\n233.07,4.617\n233.46,4.624\n233.89,4.632\n234.34,4.641\n234.65,4.646\n235.07,4.653\n235.43,4.661\n235.83,4.670\n236.22,4.678\n236.61,4.685\n236.98,4.690\n237.40,4.695\n237.80,4.700\n238.19,4.705\n238.58,4.710\n238.98,4.714\n239.37,4.719\n239.76,4.724\n240.22,4.731\n240.55,4.737\n240.94,4.741\n241.34,4.749\n241.73,4.754\n242.13,4.761\n242.52,4.766\n242.91,4.768\n243.31,4.776\n243.70,4.781\n244.09,4.785\n244.49,4.790\n244.88,4.795\n245.28,4.800\n245.67,4.803\n246.06,4.808\n246.46,4.812\n246.85,4.815\n247.24,4.820\n247.64,4.825\n248.03,4.830\n248.43,4.832\n248.82,4.837\n249.21,4.842\n249.61,4.844\n250.00,4.847\n250.39,4.844\n250.79,4.839\n251.18,4.837\n251.57,4.834\n251.96,4.831\n252.37,4.827\n252.79,4.822\n253.22,4.816\n253.61,4.811\n253.94,4.805\n254.35,4.798\n254.72,4.793\n255.12,4.784\n255.51,4.776\n255.92,4.767\n256.35,4.757\n256.77,4.747\n257.14,4.737\n257.53,4.725\n257.83,4.714\n258.15,4.704\n258.67,4.688\n259.10,4.673\n259.48,4.660\n259.84,4.648\n260.20,4.633\n260.56,4.619\n260.95,4.601\n261.33,4.582\n261.76,4.558\n262.21,4.530\n262.60,4.502\n262.99,4.467\n263.39,4.431\n263.78,4.394\n264.17,4.369\n264.57,4.335\n264.96,4.289\n265.35,4.244\n265.75,4.203\n266.14,4.161\n266.54,4.120\n266.93,4.095\n267.32,4.054\n268.37,3.973\n269.06,3.909\n269.56,3.857\n270.06,3.812\n270.47,3.772\n270.87,3.735\n271.25,3.700\n271.65,3.659\n272.05,3.633\n272.44,3.603\n##END=\n'