b'##TITLE=L-Methionine\n##JCAMP-DX=4.24\n##DATA TYPE=UV/VIS SPECTRUM\n##ORIGIN=INSTITUTE OF ENERGY PROBLEMS OF CHEMICAL PHYSICS, RAS\n##OWNER=INEP CP RAS, NIST OSRD\nCollection (C) 2007 copyright by the U.S. Secretary of Commerce\non behalf of the United States of America. All rights reserved.\n##CAS REGISTRY NO=63-68-3\n##MOLFORM=C5H11NO2S\n##BP=283 dec.\n##SOURCE REFERENCE=RAS UV No. 19870\n##$NIST SQUIB=1971JOHj2/4\n##$NIST SOURCE=TYUGLMTE\n##SPECTROMETER/DATA SYSTEM=Unicam SP 500\n##XUNITS=Wavelength (nm)\n##YUNITS=Logarithm epsilon\n##XFACTOR=1.0\n##YFACTOR=1.0\n##FIRSTX=185.99\n##LASTX=254.67\n##FIRSTY=3.563\n##MAXX=254.67\n##MINX=185.99\n##MAXY=3.563\n##MINY=0.091\n##NPOINTS=124\n##$REF AUTHOR=Johnson, E.A.\n##$REF JOURNAL=UV atlas of organic compounds\n##$REF VOLUME=5\n##$REF PAGE=J2/4\n##$REF DATE=1971\n##XYPOINTS=(XY..XY)\n185.99,3.563\n186.06,3.561\n186.14,3.559\n186.21,3.557\n186.29,3.555\n186.36,3.553\n186.44,3.551\n186.52,3.548\n186.59,3.546\n186.67,3.544\n186.74,3.542\n186.82,3.540\n186.89,3.540\n186.97,3.538\n187.20,3.508\n187.65,3.493\n188.11,3.476\n188.57,3.457\n189.03,3.442\n189.50,3.427\n189.97,3.412\n190.44,3.397\n190.91,3.384\n191.38,3.372\n191.86,3.359\n192.34,3.348\n192.82,3.340\n193.30,3.331\n193.79,3.325\n194.28,3.316\n194.77,3.312\n195.26,3.303\n195.76,3.301\n196.26,3.297\n196.76,3.293\n197.26,3.291\n197.77,3.288\n198.28,3.286\n198.79,3.282\n199.31,3.282\n199.82,3.282\n200.34,3.282\n200.87,3.280\n201.39,3.278\n201.92,3.276\n202.45,3.274\n202.98,3.271\n203.52,3.267\n204.06,3.263\n204.60,3.261\n205.15,3.259\n205.69,3.250\n206.25,3.248\n206.80,3.239\n207.36,3.233\n207.92,3.227\n208.48,3.218\n209.04,3.208\n209.61,3.197\n210.19,3.184\n210.76,3.169\n211.34,3.154\n211.92,3.137\n212.51,3.116\n213.09,3.093\n213.69,3.069\n214.28,3.046\n214.88,3.020\n215.48,2.992\n216.08,2.963\n216.69,2.931\n217.30,2.894\n217.92,2.852\n218.54,2.822\n219.16,2.788\n219.78,2.754\n220.41,2.720\n221.05,2.686\n221.68,2.652\n222.32,2.605\n222.97,2.573\n223.61,2.537\n224.26,2.498\n224.92,2.462\n225.58,2.417\n226.24,2.377\n226.89,2.336\n227.55,2.305\n228.25,2.272\n228.90,2.237\n229.61,2.191\n230.30,2.147\n230.99,2.098\n231.69,2.049\n232.38,2.000\n233.09,1.946\n233.80,1.897\n234.49,1.848\n235.22,1.789\n235.94,1.731\n236.67,1.680\n237.40,1.625\n238.13,1.561\n238.83,1.505\n239.61,1.448\n240.36,1.393\n241.14,1.327\n241.87,1.265\n242.63,1.203\n243.40,1.139\n244.17,1.060\n244.95,0.992\n245.73,0.917\n246.52,0.837\n247.31,0.773\n248.11,0.700\n248.91,0.626\n249.72,0.536\n250.53,0.464\n251.35,0.396\n252.17,0.315\n253.00,0.242\n253.83,0.172\n254.67,0.091\n##END=\n'