b'##TITLE=Acetic acid\n##JCAMP-DX=4.24\n##DATA TYPE=UV/VIS SPECTRUM\n##ORIGIN=INSTITUTE OF ENERGY PROBLEMS OF CHEMICAL PHYSICS, RAS\n##OWNER=INEP CP RAS, NIST OSRD\nCollection (C) 2007 copyright by the U.S. Secretary of Commerce\non behalf of the United States of America. All rights reserved.\n##CAS REGISTRY NO=64-19-7\n##MOLFORM=C2H4O2\n##MP=16.6\n##BP=117.9\n##SOURCE REFERENCE=RAS UV No. 2843\n##$NIST SQUIB=1946BRI/STR344-345\n##$NIST SOURCE=TSGMTE\n##SPECTROMETER/DATA SYSTEM=n.i.g.\n##PRESSURE=309 mm Hg\n##TEMPERATURE=210\n##XUNITS=Wavelength (nm)\n##YUNITS=Logarithm epsilon\n##XFACTOR=1.000000\n##YFACTOR=1.000000\n##FIRSTX=205.2567\n##LASTX=239.3953\n##FIRSTY=1.87509\n##MAXX=239.395\n##MINX=205.257\n##MAXY=1.90256\n##MINY=1.23218\n##NPOINTS=129\n##$REF AUTHOR=Briegleb, G.; Strohmeier, W.\n##$REF TITLE=Einfluss einer Wasserstoff-Bruckenbindung auf die lichtabsorption der COOH-Gruppe\n##$REF JOURNAL=Naturwissenschaften\n##$REF VOLUME=33\n##$REF PAGE=344-345\n##$REF DATE=1946\n##XYPOINTS=(XY..XY)\n205.2567,1.875088\n205.4056,1.878186\n205.4844,1.880580\n205.5605,1.884325\n205.5605,1.884325\n205.7221,1.885297\n205.8891,1.886270\n206.0588,1.887242\n208.3431,1.899872\n208.7447,1.902555\n208.7447,1.902555\n209.5454,1.902117\n210.3438,1.901679\n211.1405,1.901242\n211.5156,1.899395\n211.8887,1.899395\n211.9360,1.900804\n212.2565,1.899395\n212.6216,1.899395\n212.7309,1.900367\n212.7309,1.900367\n212.8367,1.898881\n213.1234,1.897558\n213.8369,1.891374\n213.8369,1.891374\n213.8369,1.892598\n213.8369,1.893877\n213.8369,1.895263\n213.8369,1.895263\n214.2618,1.888952\n214.6840,1.886584\n215.1008,1.884325\n215.1008,1.884325\n215.5230,1.879184\n216.0884,1.873180\n216.5106,1.868040\n216.5106,1.868040\n216.8702,1.863871\n217.2083,1.859001\n217.4707,1.856130\n217.4707,1.856130\n217.8786,1.849642\n218.2728,1.842518\n219.9500,1.808488\n219.9500,1.808488\n220.4082,1.794643\n220.8610,1.780851\n221.3111,1.767167\n221.3111,1.767167\n221.6468,1.752469\n221.9006,1.740734\n222.1998,1.725809\n222.6723,1.701540\n222.6723,1.701540\n222.7961,1.684771\n222.9194,1.668013\n223.0415,1.651277\n223.1220,1.632996\n223.1220,1.634949\n223.1220,1.636957\n223.1220,1.639073\n223.1619,1.634579\n223.2800,1.617926\n223.2800,1.617926\n223.4623,1.605358\n223.6446,1.592898\n223.8269,1.580494\n223.8269,1.580494\n224.0073,1.575300\n224.2419,1.566323\n224.6897,1.551083\n224.6897,1.551083\n224.9053,1.547824\n225.3208,1.539595\n226.2089,1.522887\n226.2089,1.522887\n226.3426,1.521916\n226.4763,1.520943\n226.6100,1.519971\n226.6100,1.519971\n227.2077,1.511905\n228.1026,1.502271\n228.6760,1.497608\n228.6760,1.497608\n228.7215,1.494754\n228.8128,1.492927\n229.0285,1.490560\n229.0285,1.490560\n229.8413,1.488012\n230.5976,1.484761\n231.5077,1.481566\n231.5077,1.481566\n231.7143,1.478434\n232.0262,1.475786\n232.7109,1.471358\n232.7109,1.471358\n232.8166,1.469242\n232.9170,1.467234\n233.0147,1.465280\n233.0147,1.465280\n233.2209,1.463894\n233.4243,1.462615\n233.6224,1.461392\n233.6224,1.461392\n233.6584,1.459691\n233.6917,1.457989\n233.7196,1.456287\n233.7196,1.456287\n233.9987,1.453444\n234.1328,1.452156\n234.1328,1.452156\n234.2912,1.448051\n234.5415,1.442973\n234.8377,1.436113\n234.8377,1.436113\n235.3279,1.424779\n236.0287,1.405884\n236.5513,1.392604\n236.5513,1.392604\n237.1284,1.367201\n237.5056,1.351897\n237.9125,1.335241\n237.9125,1.335241\n238.1174,1.321957\n238.3722,1.304333\n238.6520,1.284456\n238.9322,1.264412\n239.1882,1.246289\n239.3953,1.232178\n##END=\n'