b'##TITLE=Tetramethylammonium bromide\n##JCAMP-DX=4.24\n##DATA TYPE=UV/VIS SPECTRUM\n##ORIGIN=INSTITUTE OF ENERGY PROBLEMS OF CHEMICAL PHYSICS, RAS\n##OWNER=INEP CP RAS, NIST OSRD\nCollection (C) 2007 copyright by the U.S. Secretary of Commerce\non behalf of the United States of America. All rights reserved.\n##CAS REGISTRY NO=64-20-0\n##MOLFORM=C4H12BrN\n##SOURCE REFERENCE=RAS UV No. 22455\n##$NIST SQUIB=1977ELK/GRI1050\n##$NIST SOURCE=TYUGLMTE\n##SPECTROMETER/DATA SYSTEM=Cary 14\n##XUNITS=Wavelength (nm)\n##YUNITS=Logarithm epsilon\n##XFACTOR=1.0\n##YFACTOR=1.0\n##FIRSTX=190.763\n##LASTX=236.736\n##FIRSTY=3.935\n##MAXX=236.736\n##MINX=190.763\n##MAXY=4.038\n##MINY=2.388\n##NPOINTS=47\n##$REF AUTHOR=El-Kourashy, A.G.; Grinter, R.\n##$REF JOURNAL=J. Chem. Soc.,Faraday Trans. II\n##$REF PAGE=1050\n##$REF DATE=1977\n##XYPOINTS=(XY..XY)\n190.763,3.935\n191.763,3.921\n192.763,3.916\n193.763,3.919\n194.763,3.928\n195.763,3.942\n196.763,3.959\n197.763,3.977\n198.763,3.995\n199.763,4.010\n200.763,4.022\n201.763,4.030\n202.763,4.032\n203.763,4.028\n204.763,4.019\n205.763,4.007\n206.745,3.993\n207.745,3.982\n208.745,3.974\n209.745,3.970\n210.745,3.972\n211.745,3.979\n212.745,3.990\n213.745,4.003\n214.654,4.010\n215.736,4.028\n216.736,4.038\n217.736,4.038\n218.736,4.030\n219.736,4.013\n220.736,3.989\n221.736,3.957\n222.736,3.917\n223.736,3.868\n224.736,3.810\n225.736,3.744\n226.736,3.669\n227.736,3.586\n228.736,3.497\n229.736,3.402\n230.736,3.300\n231.736,3.192\n232.736,3.075\n233.736,2.945\n234.736,2.795\n235.736,2.614\n236.736,2.388\n##END=\n'