b'##TITLE=1-Penten-3-yne\n##JCAMP-DX=4.24\n##DATA TYPE=UV/VIS SPECTRUM\n##ORIGIN=INSTITUTE OF ENERGY PROBLEMS OF CHEMICAL PHYSICS, RAS\n##OWNER=INEP CP RAS, NIST OSRD\nCollection (C) 2007 copyright by the U.S. Secretary of Commerce\non behalf of the United States of America. All rights reserved.\n##CAS REGISTRY NO=646-05-9\n##MOLFORM=C5H6\n##BP=59.5\n##SOURCE REFERENCE=RAS UV No. 10968\n##$NIST SQUIB=1951BRU/1244\n##$NIST SOURCE=TYUGLMTE\n##SPECTROMETER/DATA SYSTEM=n.i.g.\n##STATE=<none>\n##XUNITS=Wavelength (nm)\n##YUNITS=Logarithm epsilon\n##XFACTOR=1.0\n##YFACTOR=1.0\n##FIRSTX=208.23\n##LASTX=245.43\n##FIRSTY=4.066\n##MAXX=245.43\n##MINX=208.23\n##MAXY=4.112\n##MINY=1.924\n##NPOINTS=65\n##$REF AUTHOR=Bruun, T.; et al.\n##$REF JOURNAL=Acta Chem. Scand.\n##$REF VOLUME=5\n##$REF PAGE=1244\n##$REF DATE=1951\n##XYPOINTS=(XY..XY)\n208.23,4.066\n208.54,4.070\n209.15,4.076\n209.76,4.083\n210.06,4.086\n210.37,4.089\n210.67,4.092\n210.98,4.096\n211.28,4.099\n211.59,4.102\n212.00,4.104\n212.50,4.109\n213.11,4.112\n213.74,4.112\n214.95,4.111\n215.56,4.109\n216.16,4.105\n216.77,4.099\n217.39,4.077\n217.99,4.034\n218.60,4.001\n219.21,3.995\n219.82,3.985\n220.43,3.978\n221.04,3.968\n221.65,3.952\n222.26,3.933\n222.87,3.913\n223.48,3.890\n224.09,3.835\n224.70,3.698\n225.30,3.665\n225.91,3.652\n226.52,3.636\n227.13,3.593\n227.74,3.528\n228.35,3.424\n228.96,3.326\n229.57,3.261\n230.18,3.196\n230.79,3.166\n231.40,3.137\n232.01,3.108\n232.62,3.062\n233.23,3.033\n233.84,3.000\n234.45,2.945\n235.06,2.883\n235.67,2.788\n236.28,2.723\n236.89,2.661\n237.50,2.602\n238.11,2.573\n238.66,2.535\n239.33,2.485\n239.94,2.446\n240.55,2.384\n241.16,2.361\n241.77,2.328\n242.38,2.292\n242.98,2.230\n243.62,2.166\n244.33,2.065\n244.91,1.990\n245.43,1.924\n##END=\n'