b'##TITLE=Acetic acid, iodo-\n##JCAMP-DX=4.24\n##DATA TYPE=UV/VIS SPECTRUM\n##ORIGIN=INSTITUTE OF ENERGY PROBLEMS OF CHEMICAL PHYSICS, RAS\n##OWNER=INEP CP RAS, NIST OSRD\nCollection (C) 2007 copyright by the U.S. Secretary of Commerce\non behalf of the United States of America. All rights reserved.\n##CAS REGISTRY NO=64-69-7\n##MOLFORM=C2H3IO2\n##MP=82.5\n##BP=dec\n##SOURCE REFERENCE=RAS UV No. 10194\n##$NIST SQUIB=1950DUR/JAR1181\n##$NIST SOURCE=TYUGLMTE\n##SPECTROMETER/DATA SYSTEM=Beckman spectrophotometer\n##XUNITS=Wavelength (nm)\n##YUNITS=Logarithm epsilon\n##XFACTOR=1.0\n##YFACTOR=1.0\n##FIRSTX=229.52\n##LASTX=307.32\n##FIRSTY=2.774\n##MAXX=307.32\n##MINX=229.52\n##MAXY=2.774\n##MINY=1.908\n##NPOINTS=116\n##$REF AUTHOR=Durie, R.A.; Jarvie, J.M.S.\n##$REF JOURNAL=J. Chem. Soc.\n##$REF PAGE=1181\n##$REF DATE=1950\n##XYPOINTS=(XY..XY)\n229.52,2.774\n230.19,2.758\n230.33,2.757\n230.86,2.744\n231.54,2.728\n232.21,2.716\n232.88,2.702\n233.55,2.691\n234.22,2.682\n234.89,2.671\n235.56,2.661\n236.23,2.654\n236.90,2.643\n237.57,2.634\n238.24,2.626\n238.91,2.620\n239.58,2.613\n240.25,2.608\n240.92,2.605\n241.59,2.603\n242.27,2.601\n242.94,2.599\n243.61,2.596\n244.28,2.595\n244.95,2.593\n245.62,2.592\n246.29,2.590\n246.96,2.589\n247.63,2.586\n248.30,2.583\n248.97,2.583\n249.64,2.583\n250.31,2.581\n250.98,2.582\n251.65,2.584\n252.32,2.586\n253.00,2.590\n253.67,2.593\n254.34,2.599\n255.01,2.606\n255.68,2.613\n256.35,2.617\n257.02,2.622\n257.69,2.627\n258.36,2.632\n259.03,2.635\n259.70,2.638\n260.37,2.640\n261.04,2.642\n261.71,2.642\n262.38,2.644\n263.06,2.645\n263.73,2.644\n264.40,2.644\n265.07,2.643\n265.74,2.642\n266.41,2.638\n267.08,2.632\n267.75,2.625\n268.42,2.618\n269.09,2.612\n269.76,2.605\n270.43,2.597\n271.10,2.590\n271.77,2.583\n272.44,2.575\n273.11,2.568\n273.79,2.561\n274.46,2.553\n275.13,2.546\n275.80,2.539\n276.47,2.529\n277.14,2.521\n277.81,2.513\n278.48,2.504\n279.15,2.495\n279.82,2.486\n280.49,2.479\n281.16,2.474\n281.83,2.465\n282.50,2.456\n283.17,2.446\n283.85,2.435\n284.52,2.425\n285.19,2.414\n285.86,2.404\n286.53,2.393\n287.20,2.384\n287.87,2.371\n288.54,2.361\n289.21,2.351\n289.88,2.337\n290.55,2.325\n291.22,2.308\n291.89,2.292\n292.56,2.284\n293.90,2.260\n294.58,2.247\n295.25,2.230\n295.92,2.218\n296.59,2.203\n297.26,2.188\n297.93,2.175\n298.60,2.159\n299.27,2.142\n299.94,2.127\n300.61,2.109\n301.28,2.095\n302.62,2.060\n303.29,2.036\n303.96,2.020\n304.63,1.994\n305.31,1.975\n305.98,1.953\n306.65,1.933\n307.32,1.908\n##END=\n'