b'##TITLE=Thymine\n##JCAMP-DX=4.24\n##DATA TYPE=UV/VIS SPECTRUM\n##ORIGIN=INSTITUTE OF ENERGY PROBLEMS OF CHEMICAL PHYSICS, RAS\n##OWNER=INEP CP RAS, NIST OSRD\nCollection (C) 2007 copyright by the U.S. Secretary of Commerce\non behalf of the United States of America. All rights reserved.\n##CAS REGISTRY NO=65-71-4\n##MOLFORM=C5H6N2O2\n##MP=316\n##SOURCE REFERENCE=RAS UV No. 11048\n##$NIST SQUIB=1948WIL1157\n##$NIST SOURCE=TYUGLMTE\n##SPECTROMETER/DATA SYSTEM=n.i.g.\n##XUNITS=Wavelength (nm)\n##YUNITS=Logarithm epsilon\n##XFACTOR=1.0\n##YFACTOR=1.0\n##FIRSTX=224.3\n##LASTX=294.49\n##FIRSTY=3.551\n##MAXX=294.49\n##MINX=224.3\n##MAXY=3.904\n##MINY=2.924\n##NPOINTS=105\n##$REF AUTHOR=Wilson, W.\n##$REF JOURNAL=J. Chem. Soc.\n##$REF PAGE=1157\n##$REF DATE=1948\n##XYPOINTS=(XY..XY)\n224.30,3.551\n224.59,3.530\n224.99,3.503\n225.33,3.486\n225.68,3.476\n226.08,3.457\n227.05,3.423\n227.74,3.401\n228.43,3.377\n228.95,3.363\n229.81,3.345\n230.38,3.336\n231.18,3.325\n231.87,3.318\n232.50,3.319\n233.30,3.331\n233.94,3.345\n234.62,3.358\n235.31,3.377\n236.00,3.389\n236.69,3.407\n237.38,3.418\n238.06,3.434\n238.75,3.445\n239.44,3.460\n240.13,3.475\n240.82,3.490\n241.51,3.504\n242.14,3.514\n242.88,3.530\n243.57,3.547\n244.26,3.559\n244.95,3.571\n245.63,3.586\n246.32,3.609\n247.01,3.626\n247.70,3.640\n248.39,3.656\n249.08,3.669\n249.76,3.684\n250.45,3.696\n251.14,3.710\n251.83,3.724\n252.51,3.738\n253.20,3.751\n253.89,3.764\n254.58,3.776\n255.27,3.788\n255.96,3.805\n256.65,3.818\n257.33,3.829\n258.02,3.842\n258.71,3.852\n259.40,3.862\n260.09,3.874\n260.77,3.882\n261.46,3.891\n262.15,3.898\n262.84,3.902\n263.53,3.904\n264.22,3.904\n264.90,3.904\n265.59,3.902\n266.28,3.893\n266.97,3.884\n267.66,3.868\n268.34,3.858\n269.03,3.846\n269.72,3.825\n270.41,3.805\n271.10,3.781\n271.78,3.761\n272.47,3.733\n273.16,3.710\n273.85,3.684\n274.54,3.656\n275.23,3.633\n275.91,3.609\n276.60,3.583\n277.29,3.555\n277.98,3.534\n278.83,3.504\n279.52,3.482\n280.04,3.465\n280.73,3.440\n281.42,3.418\n282.10,3.395\n282.80,3.371\n283.48,3.339\n284.17,3.311\n284.86,3.282\n285.55,3.258\n286.06,3.240\n286.81,3.218\n287.38,3.196\n288.30,3.159\n288.99,3.128\n289.56,3.106\n290.37,3.070\n290.82,3.052\n291.45,3.032\n292.25,3.003\n292.88,2.979\n293.81,2.941\n294.49,2.924\n##END=\n'