b'##TITLE=Uracil\n##JCAMP-DX=4.24\n##DATA TYPE=UV/VIS SPECTRUM\n##ORIGIN=INSTITUTE OF ENERGY PROBLEMS OF CHEMICAL PHYSICS, RAS\n##OWNER=INEP CP RAS, NIST OSRD\nCollection (C) 2007 copyright by the U.S. Secretary of Commerce\non behalf of the United States of America. All rights reserved.\n##CAS REGISTRY NO=66-22-8\n##MOLFORM=C4H4N2O2\n##MP=338\n##SOURCE REFERENCE=RAS UV No. 10472\n##$NIST SQUIB=1949STI1470\n##$NIST SOURCE=TYUGLMTE\n##SPECTROMETER/DATA SYSTEM=n.i.g.\n##XUNITS=Wavelength (nm)\n##YUNITS=Logarithm epsilon\n##XFACTOR=1.0\n##YFACTOR=1.0\n##FIRSTX=221.7\n##LASTX=288.42\n##FIRSTY=3.487\n##MAXX=288.42\n##MINX=221.7\n##MAXY=4.042\n##MINY=2.324\n##NPOINTS=68\n##$REF AUTHOR=Stimson, M.M.\n##$REF JOURNAL=J. Am. Chem. Soc.\n##$REF VOLUME=71\n##$REF PAGE=1470\n##$REF DATE=1949\n##XYPOINTS=(XY..XY)\n221.70,3.487\n222.04,3.482\n222.38,3.470\n222.71,3.464\n223.73,3.418\n224.75,3.398\n225.77,3.383\n226.79,3.376\n227.81,3.368\n228.81,3.375\n229.84,3.398\n230.86,3.425\n231.88,3.445\n232.90,3.476\n234.20,3.514\n235.00,3.546\n235.95,3.590\n236.97,3.638\n237.99,3.677\n239.00,3.713\n240.02,3.752\n241.04,3.783\n242.06,3.811\n243.08,3.838\n244.10,3.865\n245.11,3.891\n246.13,3.913\n247.15,3.935\n248.17,3.953\n249.19,3.972\n250.20,3.989\n251.22,4.005\n252.24,4.021\n253.26,4.031\n254.28,4.036\n255.29,4.039\n256.31,4.042\n257.33,4.040\n258.35,4.036\n259.37,4.029\n260.38,4.021\n261.40,4.014\n262.42,4.003\n263.44,3.989\n264.46,3.978\n265.48,3.953\n266.49,3.926\n267.51,3.898\n268.53,3.863\n269.55,3.830\n270.57,3.788\n271.58,3.746\n272.60,3.699\n273.62,3.642\n274.64,3.581\n275.66,3.504\n276.67,3.418\n277.69,3.328\n278.71,3.236\n279.73,3.144\n280.75,3.075\n281.76,2.993\n282.76,2.910\n283.83,2.811\n284.82,2.726\n285.84,2.612\n286.86,2.515\n288.42,2.324\n##END=\n'