b'##TITLE=Barbituric acid\n##JCAMP-DX=4.24\n##DATA TYPE=UV/VIS SPECTRUM\n##ORIGIN=INSTITUTE OF ENERGY PROBLEMS OF CHEMICAL PHYSICS, RAS\n##OWNER=INEP CP RAS, NIST OSRD\nCollection (C) 2007 copyright by the U.S. Secretary of Commerce\non behalf of the United States of America. All rights reserved.\n##CAS REGISTRY NO=67-52-7\n##MOLFORM=C4H4N2O3\n##MP=248\n##BP=260 dec\n##SOURCE REFERENCE=RAS UV No. 10485\n##$NIST SQUIB=1949STI1470\n##$NIST SOURCE=TYUGLMTE\n##SPECTROMETER/DATA SYSTEM=n.i.g.\n##XUNITS=Wavelength (nm)\n##YUNITS=Logarithm epsilon\n##XFACTOR=1.0\n##YFACTOR=1.0\n##FIRSTX=237.56\n##LASTX=285.31\n##FIRSTY=3.88\n##MAXX=285.31\n##MINX=237.56\n##MAXY=4.498\n##MINY=3.246\n##NPOINTS=52\n##$REF AUTHOR=Stimson, M.M.\n##$REF JOURNAL=J. Am. Chem. Soc.\n##$REF VOLUME=71\n##$REF PAGE=1470\n##$REF DATE=1949\n##XYPOINTS=(XY..XY)\n237.56,3.880\n237.91,3.896\n238.25,3.903\n238.60,3.918\n238.94,3.932\n239.29,3.945\n239.64,3.952\n239.98,3.965\n240.67,3.977\n241.71,4.030\n242.75,4.067\n243.79,4.115\n244.83,4.158\n245.87,4.193\n246.90,4.246\n247.94,4.285\n248.98,4.320\n250.02,4.355\n251.06,4.399\n252.09,4.424\n253.13,4.452\n254.17,4.473\n255.21,4.490\n256.25,4.498\n257.28,4.492\n258.32,4.481\n259.36,4.461\n260.40,4.438\n261.44,4.409\n262.47,4.373\n263.51,4.352\n264.55,4.314\n265.59,4.266\n266.63,4.219\n267.66,4.181\n268.70,4.101\n269.74,4.035\n270.78,3.990\n271.82,3.938\n272.85,3.880\n273.89,3.831\n274.93,3.766\n275.97,3.712\n277.01,3.651\n278.04,3.595\n279.08,3.530\n280.12,3.494\n281.16,3.454\n282.20,3.388\n283.24,3.336\n284.27,3.278\n285.31,3.246\n##END=\n'