b'##TITLE=1H-Pyrazole, 3,5-dimethyl-\n##JCAMP-DX=4.24\n##DATA TYPE=UV/VIS SPECTRUM\n##ORIGIN=INSTITUTE OF ENERGY PROBLEMS OF CHEMICAL PHYSICS, RAS\n##OWNER=INEP CP RAS, NIST OSRD\nCollection (C) 2007 copyright by the U.S. Secretary of Commerce\non behalf of the United States of America. All rights reserved.\n##CAS REGISTRY NO=67-51-6\n##MOLFORM=C5H8N2\n##SOURCE REFERENCE=RAS UV No. 18512\n##$NIST SQUIB=1981BER/1686\n##$NIST SOURCE=TYUGLMTE\n##SPECTROMETER/DATA SYSTEM=Cary 17\n##XUNITS=Wavelength (nm)\n##YUNITS=Logarithm epsilon\n##XFACTOR=1.0\n##YFACTOR=1.0\n##FIRSTX=200.21\n##LASTX=229.58\n##FIRSTY=3.612\n##MAXX=229.58\n##MINX=200.21\n##MAXY=3.765\n##MINY=2.799\n##NPOINTS=43\n##$REF AUTHOR=Bernarducci, E.; et al.\n##$REF JOURNAL=J. Am. Chem. Soc.\n##$REF VOLUME=103\n##$REF PAGE=1686\n##$REF DATE=1981\n##XYPOINTS=(XY..XY)\n200.21,3.612\n200.42,3.616\n200.63,3.619\n200.83,3.622\n201.05,3.626\n201.24,3.629\n201.48,3.632\n201.87,3.638\n202.35,3.645\n202.93,3.652\n203.14,3.656\n203.35,3.660\n203.76,3.666\n204.44,3.673\n205.00,3.678\n206.00,3.688\n206.48,3.692\n206.99,3.697\n207.99,3.707\n209.00,3.715\n209.73,3.721\n210.64,3.729\n211.56,3.735\n212.48,3.741\n213.42,3.747\n214.36,3.760\n216.27,3.765\n217.24,3.760\n218.22,3.747\n219.21,3.716\n220.20,3.674\n221.01,3.639\n222.22,3.586\n222.99,3.545\n224.27,3.476\n225.00,3.413\n226.37,3.294\n227.01,3.220\n227.39,3.175\n228.02,3.081\n228.50,3.010\n229.00,2.909\n229.58,2.799\n##END=\n'