b'##TITLE=2-Piperidinone\n##JCAMP-DX=4.24\n##DATA TYPE=UV/VIS SPECTRUM\n##ORIGIN=INSTITUTE OF ENERGY PROBLEMS OF CHEMICAL PHYSICS, RAS\n##OWNER=INEP CP RAS, NIST OSRD\nCollection (C) 2007 copyright by the U.S. Secretary of Commerce\non behalf of the United States of America. All rights reserved.\n##CAS REGISTRY NO=675-20-7\n##MOLFORM=C5H9NO\n##MP=39.5\n##BP=256\n##SOURCE REFERENCE=RAS UV No. 1124\n##$NIST SQUIB=1957HUI/BRA1437-1447\n##$NIST SOURCE=TSGMTE\n##SPECTROMETER/DATA SYSTEM=n.i.g.\n##XUNITS=Wavelength (nm)\n##YUNITS=Logarithm epsilon\n##XFACTOR=1.000000\n##YFACTOR=1.000000\n##FIRSTX=216.0314\n##LASTX=235.5215\n##FIRSTY=2.98542\n##MAXX=235.522\n##MINX=216.031\n##MAXY=2.98738\n##MINY=1.01811\n##NPOINTS=188\n##$REF AUTHOR=Huisgen, R.; Brade, H.; Walz, H.; Glogger, I.\n##$REF TITLE=Die eigenschaften aliphatischer lactame und die cis-trans-isomerie der saureamidgruppe\n##$REF JOURNAL=Chem. Ber.\n##$REF VOLUME=90\n##$REF PAGE=1437-1447\n##$REF DATE=1957\n##XYPOINTS=(XY..XY)\n216.0314,2.985423\n216.0319,2.986094\n216.0323,2.986750\n216.0327,2.987378\n216.1337,2.975817\n216.1343,2.976690\n216.1348,2.977548\n216.1353,2.978376\n216.2364,2.966633\n216.2370,2.967525\n216.2375,2.968401\n216.2380,2.969246\n216.3351,2.959272\n216.3354,2.959724\n216.3357,2.960162\n216.3359,2.960570\n216.4374,2.948995\n216.4377,2.949461\n216.4379,2.949926\n216.4382,2.950391\n216.5401,2.939219\n216.5405,2.939948\n216.5409,2.940645\n216.5413,2.941326\n216.6440,2.931374\n216.6594,2.931025\n216.6760,2.930676\n216.6949,2.930327\n216.9005,2.909952\n216.9070,2.909587\n216.9157,2.909221\n216.9257,2.908855\n217.0547,2.899240\n217.0550,2.899762\n217.0553,2.900284\n217.0555,2.900805\n217.2557,2.878648\n217.2560,2.879193\n217.2563,2.879720\n217.2565,2.880212\n217.3608,2.872088\n217.3672,2.871427\n217.3758,2.870729\n217.3856,2.870013\n217.5138,2.857765\n217.5141,2.858340\n217.5144,2.858914\n217.5146,2.859487\n218.0317,2.816712\n218.0381,2.815961\n218.0467,2.815169\n218.0565,2.814354\n218.1855,2.802369\n218.1859,2.803367\n218.1863,2.804321\n218.1867,2.805253\n218.3406,2.790616\n218.3409,2.791283\n218.3411,2.791928\n218.3414,2.792530\n218.4452,2.781491\n218.4615,2.779496\n218.4799,2.777448\n218.4996,2.775368\n218.6570,2.769142\n218.6634,2.768305\n218.6720,2.767420\n218.6818,2.766511\n218.8113,2.754257\n218.8265,2.753207\n218.8430,2.752130\n218.8616,2.751004\n219.8015,2.678651\n219.8030,2.676849\n219.8174,2.675844\n219.8570,2.674776\n219.9569,2.664238\n219.9909,2.661620\n220.0368,2.656755\n220.0856,2.645869\n220.0856,2.645869\n220.1621,2.643837\n220.1964,2.642224\n220.2179,2.639642\n220.5371,2.619287\n220.5375,2.620844\n220.5379,2.622364\n220.5383,2.623816\n220.6933,2.605815\n220.6966,2.603531\n220.7229,2.601954\n220.7949,2.599734\n220.8995,2.585489\n220.8998,2.586564\n220.9001,2.587637\n220.9004,2.588707\n221.0566,2.574236\n221.0630,2.572923\n221.0716,2.571535\n221.0814,2.570107\n221.3187,2.548823\n221.3190,2.549993\n221.3193,2.551160\n221.3195,2.552323\n221.7954,2.512596\n221.8106,2.510038\n221.8268,2.507464\n221.8454,2.504874\n222.0584,2.487243\n222.0838,2.485633\n222.1093,2.483930\n222.1347,2.482178\n222.3221,2.464605\n222.3374,2.462556\n222.3538,2.460452\n222.3725,2.458245\n222.6878,2.433983\n222.6941,2.432169\n222.7028,2.430248\n222.7126,2.428270\n222.7126,2.428270\n222.8859,2.426525\n222.9698,2.425001\n223.0079,2.405964\n223.0155,2.411507\n223.0254,2.416979\n223.0364,2.422383\n223.0364,2.422383\n223.3751,2.380950\n223.3919,2.379710\n223.4110,2.378467\n223.4313,2.377219\n224.3282,2.302498\n224.3541,2.302104\n224.3812,2.301578\n224.4105,2.300984\n225.6573,2.202409\n225.6638,2.200544\n225.6726,2.198669\n225.6825,2.196786\n226.0817,2.166151\n226.0971,2.164103\n226.1138,2.161954\n226.1326,2.159610\n228.3151,1.972218\n228.3409,1.971376\n228.3666,1.970249\n228.3923,1.968979\n228.9002,1.922899\n228.9359,1.915705\n228.9716,1.908227\n229.0073,1.900286\n230.0766,1.832227\n230.0992,1.819058\n230.1402,1.809350\n230.2349,1.794725\n230.8204,1.730491\n230.8563,1.726788\n230.8923,1.722552\n230.9282,1.718025\n231.5141,1.654873\n231.5568,1.653089\n231.6019,1.650705\n231.6480,1.648010\n232.2594,1.561512\n232.2955,1.561426\n232.3316,1.561340\n232.3677,1.561255\n232.9024,1.487370\n232.9281,1.484791\n232.9538,1.481328\n232.9796,1.477401\n233.4886,1.395733\n233.5314,1.392488\n233.5764,1.388131\n233.6225,1.383185\n234.1832,1.282055\n234.2259,1.277834\n234.2709,1.272155\n234.3171,1.265683\n234.8266,1.169983\n234.8693,1.164510\n234.9143,1.157124\n234.9605,1.148671\n235.4132,1.019000\n235.4493,1.018700\n235.4854,1.018405\n235.5215,1.018105\n##END=\n'