b'##TITLE=Acetone\n##JCAMP-DX=4.24\n##DATA TYPE=UV/VIS SPECTRUM\n##ORIGIN=INSTITUTE OF ENERGY PROBLEMS OF CHEMICAL PHYSICS, RAS\n##OWNER=INEP CP RAS, NIST OSRD\nCollection (C) 2007 copyright by the U.S. Secretary of Commerce\non behalf of the United States of America. All rights reserved.\n##CAS REGISTRY NO=67-64-1\n##MOLFORM=C3H6O\n##MP=-94.8\n##BP=56.0\n##SOURCE REFERENCE=RAS UV No. 2803\n##$NIST SQUIB=1954BAY/MCR1006-1011\n##$NIST SOURCE=TSGMTE\n##SPECTROMETER/DATA SYSTEM=Beckman spectrophotometer\n##XUNITS=Wavelength (nm)\n##YUNITS=Logarithm epsilon\n##XFACTOR=1.000000\n##YFACTOR=1.000000\n##FIRSTX=307.2472\n##LASTX=222.6761\n##FIRSTY=2.72653\n##MAXX=307.247\n##MINX=222.676\n##MAXY=4.25281\n##MINY=2.72653\n##NPOINTS=247\n##$REF AUTHOR=Bayliss, N.S.; McRae, E.G.\n##$REF TITLE=Solvent effects in the spectra of acetone, crotonaldehyde, nitromethane and nitrobenzene\n##$REF JOURNAL=J. Phys. Chem.\n##$REF VOLUME=58\n##$REF PAGE=1006-1011\n##$REF DATE=1954\n##XYPOINTS=(XY..XY)\n307.2472,2.726525\n306.1694,2.842443\n305.1800,2.933576\n304.2708,3.008780\n303.4338,3.072916\n302.6611,3.128948\n301.9454,3.178809\n301.2793,3.223836\n300.6556,3.264989\n300.0673,3.302982\n299.5076,3.338356\n298.9696,3.371536\n298.4469,3.402858\n297.9327,3.432591\n297.4208,3.460957\n296.9046,3.488137\n296.9046,3.488137\n296.5037,3.511896\n296.1036,3.534422\n295.7042,3.555837\n295.3056,3.576246\n294.9077,3.595738\n294.5107,3.614393\n294.1145,3.632279\n293.7191,3.649458\n293.3246,3.665983\n292.9309,3.681903\n292.5381,3.697259\n292.1462,3.712091\n291.7552,3.726433\n291.3651,3.740317\n290.9760,3.753770\n290.5878,3.766819\n290.2006,3.779488\n289.8144,3.791797\n289.4291,3.803767\n289.0449,3.815416\n289.0449,3.815416\n288.7651,3.826537\n288.4887,3.837383\n288.2156,3.847965\n287.9454,3.858297\n287.6781,3.868389\n287.4136,3.878253\n287.1516,3.887899\n286.8920,3.897335\n286.6346,3.906571\n286.3792,3.915614\n286.1258,3.924473\n285.8741,3.933155\n285.6240,3.941666\n285.3753,3.950013\n285.1280,3.958202\n284.8817,3.966238\n284.6364,3.974128\n284.3920,3.981876\n284.1482,3.989487\n283.9049,3.996966\n283.6620,4.004317\n283.4194,4.011544\n283.1768,4.018651\n282.9342,4.025642\n282.6913,4.032521\n282.4481,4.039291\n282.2045,4.045955\n281.9602,4.052517\n281.7151,4.058979\n281.4691,4.065343\n281.2221,4.071614\n280.9738,4.077794\n280.7243,4.083884\n280.4733,4.089888\n280.2207,4.095808\n279.9664,4.101645\n279.7102,4.107402\n279.4521,4.113082\n279.1918,4.118685\n278.9293,4.124215\n278.6644,4.129672\n278.3971,4.135058\n278.1271,4.140376\n277.8543,4.145626\n277.5787,4.150811\n277.3001,4.155931\n277.0184,4.160989\n276.7335,4.165985\n276.4452,4.170921\n276.1535,4.175799\n275.8582,4.180619\n275.5592,4.185383\n275.2564,4.190091\n274.9497,4.194746\n274.6390,4.199348\n274.3241,4.203898\n274.3241,4.203898\n274.0752,4.219213\n273.7272,4.207913\n273.6760,4.219502\n273.4993,4.212446\n273.3725,4.216819\n273.3725,4.216819\n273.3725,4.220369\n273.3725,4.220799\n273.3725,4.221213\n273.3725,4.221594\n273.3725,4.221594\n273.2687,4.219791\n273.2077,4.214997\n273.2069,4.216819\n273.2069,4.221594\n273.0370,4.216819\n273.0370,4.221594\n273.0301,4.215259\n272.9395,4.215732\n272.8581,4.216819\n272.8581,4.216819\n272.8581,4.220080\n272.8581,4.220080\n272.8581,4.221594\n272.3600,4.224176\n272.0315,4.226340\n271.5906,4.228447\n271.5906,4.228447\n270.9455,4.233934\n270.1033,4.238510\n269.1913,4.242807\n268.3338,4.247431\n268.3338,4.247431\n267.4189,4.249802\n266.5419,4.251454\n265.7020,4.252441\n264.8981,4.252812\n264.1292,4.252614\n263.3944,4.251892\n262.6929,4.250690\n262.0239,4.249049\n261.3864,4.247011\n260.7798,4.244615\n260.2033,4.241903\n259.6562,4.238916\n259.1378,4.235695\n258.6473,4.232284\n258.1843,4.228725\n257.7481,4.225064\n257.3380,4.221347\n256.9536,4.217623\n256.5942,4.213941\n256.2593,4.210353\n255.9485,4.206912\n255.6611,4.203672\n255.3968,4.200690\n255.1551,4.198023\n254.9355,4.195728\n254.9355,4.195728\n254.7896,4.193859\n254.6159,4.191573\n254.4160,4.188886\n254.1915,4.185813\n253.9440,4.182370\n253.6750,4.178572\n253.3863,4.174433\n253.0793,4.169966\n252.7557,4.165188\n252.4171,4.160111\n252.0650,4.154752\n251.7010,4.149125\n251.3267,4.143246\n250.9435,4.137131\n250.5530,4.130798\n250.1567,4.124265\n249.7561,4.117550\n249.3526,4.110676\n248.9477,4.103662\n248.5427,4.096533\n248.1393,4.089313\n247.7386,4.082029\n247.3421,4.074709\n246.9511,4.067385\n246.5670,4.060089\n246.1912,4.052855\n245.8248,4.045720\n245.8248,4.045720\n245.7365,4.045149\n245.6409,4.044528\n245.5417,4.043883\n245.5417,4.043883\n245.2794,4.037181\n245.0109,4.030373\n244.7365,4.023457\n244.4564,4.016427\n244.1711,4.009280\n243.8807,4.002014\n243.5856,3.994622\n243.2861,3.987102\n242.9825,3.979449\n242.6751,3.971658\n242.3641,3.963723\n242.0499,3.955641\n241.7328,3.947404\n241.4130,3.939007\n241.0908,3.930445\n240.7665,3.921709\n240.4404,3.912794\n240.1127,3.903692\n239.7837,3.894394\n239.4538,3.884892\n239.1230,3.875178\n238.7918,3.865241\n238.4604,3.855071\n238.1289,3.844657\n237.7978,3.833987\n237.4672,3.823048\n237.4672,3.823048\n237.1147,3.812412\n236.7635,3.801444\n236.4125,3.790136\n236.0609,3.778479\n235.7077,3.766462\n235.3522,3.754077\n234.9933,3.741311\n234.6304,3.728154\n234.2624,3.714593\n233.8886,3.700615\n233.5081,3.686205\n233.1202,3.671349\n232.7240,3.656032\n232.3188,3.640235\n231.9037,3.623942\n231.4781,3.607133\n231.0411,3.589787\n230.5920,3.571883\n230.1302,3.553397\n229.6550,3.534305\n229.1655,3.514580\n229.1655,3.514580\n228.7938,3.496198\n228.0273,3.461823\n227.3831,3.427190\n227.3831,3.427190\n226.9134,3.414798\n226.6816,3.406348\n226.4881,3.394627\n226.4881,3.394627\n226.1216,3.385783\n225.4142,3.363725\n224.2889,3.325243\n222.6761,3.264352\n##END=\n'