b'##TITLE=Formamide, N,N-dimethyl-\n##JCAMP-DX=4.24\n##DATA TYPE=UV/VIS SPECTRUM\n##ORIGIN=INSTITUTE OF ENERGY PROBLEMS OF CHEMICAL PHYSICS, RAS\n##OWNER=INEP CP RAS, NIST OSRD\nCollection (C) 2007 copyright by the U.S. Secretary of Commerce\non behalf of the United States of America. All rights reserved.\n##CAS REGISTRY NO=68-12-2\n##MOLFORM=C3H7NO\n##MP=-60.4\n##BP=153\n##SOURCE REFERENCE=RAS UV No. 2819\n##$NIST SQUIB=1953HUN/SIM4540-4543\n##$NIST SOURCE=TSGMTE\n##SPECTROMETER/DATA SYSTEM=n.i.g.\n##XUNITS=Wavelength (nm)\n##YUNITS=Logarithm epsilon\n##XFACTOR=1.000000\n##YFACTOR=1.000000\n##FIRSTX=220.6118\n##LASTX=295.4209\n##FIRSTY=3.39144\n##MAXX=295.421\n##MINX=220.612\n##MAXY=4.09853\n##MINY=2.52876\n##NPOINTS=184\n##$REF AUTHOR=Hunt, H.D.; Simpson, W.T.\n##$REF TITLE=Spectra of simple amides in the vacuum ultraviolet\n##$REF JOURNAL=J. Am. Chem. Soc.\n##$REF VOLUME=75\n##$REF PAGE=4540-4543\n##$REF DATE=1953\n##XYPOINTS=(XY..XY)\n220.6118,3.391442\n220.9115,3.405724\n221.2096,3.420014\n221.5065,3.434310\n221.8024,3.448612\n222.0973,3.462918\n222.3917,3.477228\n222.6856,3.491542\n222.9793,3.505858\n223.2730,3.520175\n223.5670,3.534494\n223.8614,3.548812\n224.1564,3.563130\n224.4523,3.577446\n224.7492,3.591760\n225.0474,3.606070\n225.3471,3.620377\n225.6486,3.634680\n225.9520,3.648977\n226.2574,3.663268\n226.5653,3.677552\n226.8757,3.691828\n227.1889,3.706096\n227.5051,3.720354\n227.8245,3.734602\n228.1473,3.748840\n228.4738,3.763066\n228.8041,3.777279\n229.1384,3.791480\n229.4770,3.805666\n229.8201,3.819838\n230.1680,3.833994\n230.5207,3.848134\n230.8785,3.862257\n231.2417,3.876362\n231.6104,3.890448\n231.9849,3.904515\n232.3654,3.918562\n232.7521,3.932588\n233.1452,3.946592\n233.5449,3.960574\n233.9514,3.974532\n234.3650,3.988466\n234.7859,4.002376\n234.7859,4.002376\n235.2515,4.013904\n235.7507,4.026260\n236.2942,4.038974\n236.8926,4.051576\n237.5568,4.063596\n238.2974,4.074565\n239.1251,4.084013\n240.0508,4.091469\n241.0851,4.096465\n242.2388,4.098530\n243.5225,4.097194\n244.9471,4.091988\n244.9471,4.091988\n245.9791,4.079311\n246.8894,4.065212\n247.6935,4.049987\n248.4068,4.033931\n249.0447,4.017341\n249.6228,4.000513\n250.1565,3.983741\n250.6613,3.967322\n250.6613,3.967322\n250.9979,3.953294\n251.3272,3.939237\n251.6495,3.925153\n251.9649,3.911042\n252.2737,3.896904\n252.5759,3.882741\n252.8717,3.868554\n253.1614,3.854342\n253.4450,3.840108\n253.7228,3.825852\n253.9948,3.811573\n254.2614,3.797274\n254.5225,3.782956\n254.7785,3.768618\n255.0294,3.754262\n255.2754,3.739888\n255.5167,3.725497\n255.7535,3.711091\n255.9859,3.696669\n256.2141,3.682233\n256.4383,3.667783\n256.6586,3.653321\n256.8751,3.638846\n257.0881,3.624360\n257.2978,3.609863\n257.5042,3.595357\n257.7075,3.580842\n257.9080,3.566319\n258.1058,3.551788\n258.3010,3.537251\n258.4938,3.522708\n258.6844,3.508160\n258.8729,3.493608\n259.0596,3.479052\n259.2445,3.464494\n259.4278,3.449934\n259.6098,3.435372\n259.7905,3.420811\n259.9702,3.406250\n260.1489,3.391690\n260.3269,3.377132\n260.5044,3.362578\n260.6815,3.348026\n260.8583,3.333479\n261.0351,3.318938\n261.2119,3.304402\n261.3890,3.289873\n261.5665,3.275352\n261.7447,3.260839\n261.9235,3.246335\n262.1033,3.231841\n262.2842,3.217358\n262.4664,3.202886\n262.4664,3.202886\n262.7488,3.187156\n263.0371,3.171515\n263.3340,3.155951\n263.6423,3.140453\n263.9647,3.125009\n264.3040,3.109607\n264.6630,3.094236\n265.0443,3.078885\n265.4508,3.063540\n265.8853,3.048192\n266.3504,3.032827\n266.8489,3.017435\n267.3836,3.002004\n267.9573,2.986522\n267.9573,2.986522\n268.9440,2.976778\n269.8743,2.972845\n271.4870,2.971777\n271.4870,2.971777\n273.1081,2.980442\n274.6922,2.988994\n276.3108,2.996317\n278.0355,3.001300\n279.9378,3.002831\n279.9378,3.002831\n281.1347,2.991734\n282.1936,2.980570\n283.1339,2.969252\n283.9751,2.957691\n284.2583,2.963204\n284.4368,2.960299\n284.6203,2.957341\n284.7364,2.945799\n284.8137,2.954274\n285.4374,2.933490\n286.0974,2.920675\n286.7359,2.907266\n287.3723,2.893176\n288.0259,2.878317\n288.7161,2.862601\n288.7161,2.862601\n289.1827,2.846447\n289.6499,2.830259\n290.1182,2.814045\n290.5884,2.797810\n291.0612,2.781561\n291.5372,2.765305\n291.5372,2.765305\n291.7961,2.749536\n292.0550,2.733766\n292.3139,2.717997\n292.5729,2.702228\n292.8318,2.686458\n293.0907,2.670689\n293.3496,2.654920\n293.6085,2.639150\n293.8674,2.623381\n294.1263,2.607612\n294.3852,2.591842\n294.6442,2.576073\n294.9031,2.560304\n295.1620,2.544534\n295.4209,2.528765\n##END=\n'