b'##TITLE=1,3-Butadiene, 1,1,2,3,4,4-hexafluoro-\n##JCAMP-DX=4.24\n##DATA TYPE=UV/VIS SPECTRUM\n##ORIGIN=INSTITUTE OF ENERGY PROBLEMS OF CHEMICAL PHYSICS, RAS\n##OWNER=INEP CP RAS, NIST OSRD\nCollection (C) 2007 copyright by the U.S. Secretary of Commerce\non behalf of the United States of America. All rights reserved.\n##CAS REGISTRY NO=685-63-2\n##MOLFORM=C4F6\n##SOURCE REFERENCE=RAS UV No. 14850\n##$NIST SQUIB=1969POT/369\n##$NIST SOURCE=TYUGLMTE\n##SPECTROMETER/DATA SYSTEM=Robin Vacuum UV spectrophotometer\n##XUNITS=Wavelength (nm)\n##YUNITS=Logarithm epsilon\n##XFACTOR=1.0\n##YFACTOR=1.0\n##FIRSTX=177.04\n##LASTX=226.87\n##FIRSTY=3.57\n##MAXX=226.87\n##MINX=177.04\n##MAXY=3.57\n##MINY=2.404\n##NPOINTS=279\n##$REF AUTHOR=Pottier, R.H.; et al.\n##$REF JOURNAL=Spectroscopy Letters\n##$REF VOLUME=2\n##$REF PAGE=369\n##$REF DATE=1969\n##XYPOINTS=(XY..XY)\n177.04,3.570\n177.06,3.566\n177.13,3.562\n177.20,3.558\n177.24,3.554\n177.31,3.551\n177.38,3.547\n177.44,3.543\n177.49,3.539\n177.58,3.535\n177.65,3.531\n177.69,3.527\n177.78,3.524\n177.83,3.519\n177.92,3.516\n177.98,3.512\n178.03,3.507\n178.12,3.503\n178.19,3.500\n178.23,3.495\n178.32,3.491\n178.41,3.487\n178.48,3.483\n178.57,3.479\n178.64,3.475\n178.73,3.471\n178.84,3.467\n178.94,3.462\n179.05,3.458\n179.16,3.454\n179.28,3.450\n179.37,3.445\n179.51,3.441\n179.64,3.438\n179.76,3.433\n179.87,3.429\n179.99,3.424\n180.11,3.420\n180.22,3.416\n180.34,3.411\n180.45,3.406\n180.59,3.402\n180.73,3.398\n180.87,3.393\n180.99,3.389\n181.10,3.385\n181.24,3.380\n181.38,3.377\n181.52,3.372\n181.67,3.368\n181.81,3.364\n181.92,3.360\n182.07,3.355\n182.21,3.350\n182.35,3.345\n182.49,3.341\n182.66,3.338\n182.80,3.333\n182.97,3.329\n183.13,3.326\n183.32,3.322\n183.49,3.317\n183.68,3.315\n183.88,3.311\n184.07,3.309\n184.29,3.306\n184.48,3.303\n184.67,3.301\n184.87,3.299\n185.09,3.296\n185.31,3.294\n185.53,3.293\n185.75,3.291\n185.97,3.289\n186.19,3.289\n186.41,3.288\n186.64,3.288\n186.86,3.288\n187.08,3.288\n187.31,3.288\n187.53,3.289\n187.76,3.289\n187.99,3.290\n188.21,3.291\n188.44,3.293\n188.67,3.295\n188.89,3.297\n189.12,3.300\n189.33,3.303\n189.53,3.306\n189.74,3.309\n189.94,3.312\n190.15,3.315\n190.35,3.319\n190.56,3.323\n190.74,3.326\n190.92,3.331\n191.10,3.335\n191.29,3.339\n191.47,3.343\n191.65,3.347\n191.81,3.352\n191.99,3.356\n192.15,3.360\n192.31,3.364\n192.49,3.368\n192.65,3.371\n192.81,3.375\n192.97,3.379\n193.13,3.384\n193.29,3.388\n193.47,3.392\n193.63,3.395\n193.79,3.400\n193.95,3.403\n194.14,3.407\n194.30,3.410\n194.44,3.415\n194.63,3.418\n194.81,3.422\n194.98,3.426\n195.17,3.429\n195.36,3.432\n195.55,3.436\n195.71,3.440\n195.90,3.443\n196.09,3.446\n196.28,3.450\n196.48,3.452\n196.67,3.455\n196.89,3.458\n197.05,3.461\n197.28,3.464\n197.47,3.467\n197.69,3.469\n197.92,3.471\n198.14,3.474\n198.36,3.476\n198.59,3.478\n198.81,3.480\n199.04,3.482\n199.26,3.484\n199.52,3.485\n199.77,3.486\n200.03,3.487\n200.29,3.488\n200.54,3.489\n200.80,3.489\n201.06,3.489\n201.32,3.489\n201.58,3.489\n201.84,3.489\n202.10,3.488\n202.36,3.488\n202.62,3.487\n202.89,3.487\n203.15,3.486\n203.36,3.483\n203.59,3.481\n203.80,3.478\n204.04,3.476\n204.24,3.473\n204.45,3.470\n204.66,3.467\n204.87,3.463\n205.08,3.460\n205.26,3.457\n205.44,3.453\n205.62,3.450\n205.80,3.446\n205.95,3.442\n206.13,3.439\n206.28,3.435\n206.44,3.430\n206.59,3.426\n206.74,3.421\n206.89,3.416\n207.04,3.412\n207.20,3.408\n207.35,3.403\n207.50,3.398\n207.66,3.393\n207.81,3.389\n207.96,3.384\n208.12,3.379\n208.30,3.375\n208.46,3.369\n208.61,3.364\n208.77,3.360\n208.92,3.355\n209.08,3.350\n209.23,3.345\n209.39,3.340\n209.55,3.334\n209.70,3.329\n209.86,3.324\n210.01,3.319\n210.17,3.314\n210.36,3.309\n210.52,3.303\n210.68,3.298\n210.83,3.293\n210.99,3.287\n211.15,3.282\n211.31,3.276\n211.47,3.270\n211.63,3.264\n211.79,3.259\n211.95,3.253\n212.14,3.247\n212.30,3.240\n212.49,3.233\n212.69,3.227\n212.85,3.220\n213.04,3.213\n213.20,3.207\n213.36,3.200\n213.53,3.193\n213.72,3.187\n213.88,3.179\n214.08,3.173\n214.24,3.166\n214.44,3.159\n214.60,3.150\n214.80,3.143\n214.96,3.135\n215.19,3.128\n215.39,3.121\n215.59,3.113\n215.76,3.105\n215.92,3.096\n216.12,3.088\n216.32,3.079\n216.52,3.070\n216.69,3.061\n216.89,3.051\n217.06,3.040\n217.26,3.030\n217.46,3.020\n217.66,3.010\n217.86,3.001\n218.07,2.990\n218.24,2.977\n218.44,2.966\n218.68,2.956\n218.88,2.944\n219.05,2.932\n219.26,2.919\n219.46,2.906\n219.67,2.894\n219.87,2.881\n220.08,2.868\n220.29,2.854\n220.50,2.841\n220.70,2.827\n220.95,2.813\n221.16,2.797\n221.36,2.782\n221.57,2.766\n221.78,2.750\n222.03,2.734\n222.27,2.719\n222.45,2.699\n222.70,2.680\n222.95,2.663\n223.16,2.643\n223.44,2.626\n223.69,2.603\n223.98,2.584\n224.23,2.563\n224.51,2.546\n224.80,2.524\n225.09,2.506\n225.38,2.486\n225.70,2.476\n225.99,2.455\n226.28,2.439\n226.58,2.422\n226.87,2.404\n##END=\n'