b'##TITLE=Thioacetaldehyde\n##JCAMP-DX=4.24\n##DATA TYPE=UV/VIS SPECTRUM\n##ORIGIN=INSTITUTE OF ENERGY PROBLEMS OF CHEMICAL PHYSICS, RAS\n##OWNER=INEP CP RAS, NIST OSRD\nCollection (C) 2007 copyright by the U.S. Secretary of Commerce\non behalf of the United States of America. All rights reserved.\n##CAS REGISTRY NO=6851-93-0\n##MOLFORM=C2H4S\n##SOURCE REFERENCE=RAS UV No. 13174\n##$NIST SQUIB=1962ROS2284\n##$NIST SOURCE=TYUGLMTE\n##SPECTROMETER/DATA SYSTEM=Inucam Model SP 700\n##XUNITS=Wavelength (nm)\n##YUNITS=Logarithm epsilon\n##XFACTOR=1.0\n##YFACTOR=1.0\n##FIRSTX=200.87\n##LASTX=235.43\n##FIRSTY=3.75\n##MAXX=235.43\n##MINX=200.87\n##MAXY=3.952\n##MINY=3.179\n##NPOINTS=59\n##$REF AUTHOR=Rosengren, K.\n##$REF JOURNAL=Acta Chem. Scand.\n##$REF VOLUME=16\n##$REF PAGE=2284\n##$REF DATE=1962\n##XYPOINTS=(XY..XY)\n200.87,3.750\n201.11,3.759\n201.42,3.770\n201.78,3.790\n202.31,3.816\n202.84,3.840\n203.37,3.866\n203.90,3.887\n204.44,3.906\n204.98,3.926\n205.52,3.938\n206.07,3.947\n206.61,3.951\n207.17,3.952\n207.72,3.950\n208.28,3.946\n208.84,3.938\n209.40,3.928\n209.97,3.917\n210.54,3.901\n211.11,3.880\n211.68,3.851\n212.26,3.823\n212.84,3.803\n213.43,3.786\n214.02,3.770\n214.61,3.759\n215.20,3.751\n215.80,3.746\n216.40,3.745\n217.01,3.745\n217.62,3.746\n218.23,3.751\n218.84,3.753\n219.46,3.758\n220.08,3.761\n220.71,3.761\n221.34,3.761\n221.97,3.760\n222.61,3.755\n223.25,3.750\n223.89,3.737\n224.54,3.722\n225.19,3.704\n225.84,3.682\n226.50,3.661\n227.17,3.636\n227.83,3.608\n228.50,3.583\n229.18,3.551\n229.86,3.517\n230.54,3.484\n231.23,3.446\n231.92,3.411\n232.61,3.369\n233.31,3.328\n234.01,3.279\n234.72,3.232\n235.43,3.179\n##END=\n'