b'##TITLE=4-Pyridinol-1-oxide\n##JCAMP-DX=4.24\n##DATA TYPE=UV/VIS SPECTRUM\n##ORIGIN=INSTITUTE OF ENERGY PROBLEMS OF CHEMICAL PHYSICS, RAS\n##OWNER=INEP CP RAS, NIST OSRD\nCollection (C) 2007 copyright by the U.S. Secretary of Commerce\non behalf of the United States of America. All rights reserved.\n##CAS REGISTRY NO=6890-62-6\n##MOLFORM=C5H5NO2\n##SOURCE REFERENCE=RAS UV No. 12134\n##$NIST SQUIB=1955JAF4451\n##$NIST SOURCE=TYUGLMTE\n##SPECTROMETER/DATA SYSTEM=Beckman DU\n##XUNITS=Wavelength (nm)\n##YUNITS=Logarithm epsilon\n##XFACTOR=1.0\n##YFACTOR=1.0\n##FIRSTX=202.96\n##LASTX=319.03\n##FIRSTY=4.062\n##MAXX=319.03\n##MINX=202.96\n##MAXY=4.125\n##MINY=2.301\n##NPOINTS=249\n##$REF AUTHOR=Jaffe, H.H.\n##$REF JOURNAL=J. Am. Chem. Soc.\n##$REF VOLUME=77\n##$REF PAGE=4451\n##$REF DATE=1955\n##XYPOINTS=(XY..XY)\n202.96,4.062\n203.11,4.055\n203.30,4.044\n203.49,4.032\n203.64,4.018\n203.82,4.004\n203.98,3.991\n204.16,3.975\n204.33,3.953\n204.51,3.931\n204.69,3.908\n204.87,3.878\n205.04,3.848\n205.22,3.823\n205.39,3.798\n205.61,3.767\n205.78,3.742\n205.93,3.719\n206.08,3.699\n206.26,3.678\n206.43,3.660\n206.61,3.639\n206.78,3.609\n206.99,3.563\n207.13,3.527\n207.30,3.488\n207.48,3.456\n207.61,3.432\n207.76,3.405\n207.92,3.374\n208.17,3.324\n208.31,3.304\n208.42,3.288\n208.57,3.271\n208.74,3.254\n208.91,3.235\n209.12,3.210\n209.35,3.180\n209.52,3.152\n209.70,3.134\n209.87,3.112\n210.02,3.098\n210.19,3.082\n210.43,3.063\n210.61,3.050\n210.78,3.037\n210.92,3.029\n211.13,3.016\n211.51,2.992\n211.92,2.967\n212.87,2.930\n213.40,2.914\n213.91,2.903\n214.43,2.893\n214.95,2.887\n215.50,2.880\n216.04,2.874\n216.53,2.869\n217.01,2.866\n217.56,2.864\n218.08,2.864\n218.60,2.864\n219.12,2.864\n219.67,2.868\n220.16,2.871\n220.67,2.877\n221.21,2.884\n221.73,2.893\n222.25,2.903\n222.74,2.913\n223.23,2.923\n223.82,2.938\n224.28,2.949\n224.84,2.964\n225.38,2.979\n225.84,2.989\n226.33,3.004\n226.87,3.020\n227.47,3.044\n227.99,3.063\n228.51,3.088\n229.03,3.110\n229.55,3.128\n230.08,3.155\n230.60,3.180\n231.12,3.204\n231.64,3.231\n232.16,3.260\n232.68,3.288\n233.21,3.310\n233.73,3.338\n234.25,3.358\n234.77,3.383\n235.29,3.415\n235.81,3.437\n236.34,3.471\n236.86,3.495\n237.38,3.518\n237.90,3.542\n238.42,3.565\n238.94,3.590\n239.46,3.605\n239.99,3.630\n240.51,3.656\n241.03,3.676\n241.55,3.703\n242.07,3.726\n242.59,3.746\n243.12,3.760\n243.64,3.782\n244.16,3.803\n244.68,3.825\n245.20,3.847\n245.72,3.865\n246.24,3.878\n246.77,3.900\n247.29,3.915\n247.81,3.932\n248.33,3.952\n248.85,3.966\n249.37,3.989\n249.90,4.007\n250.42,4.021\n250.94,4.031\n251.46,4.043\n251.98,4.053\n252.50,4.066\n253.03,4.075\n253.55,4.084\n254.07,4.092\n254.59,4.098\n255.11,4.104\n255.63,4.110\n256.15,4.115\n256.68,4.118\n257.20,4.121\n257.72,4.123\n258.24,4.124\n258.76,4.125\n259.28,4.125\n259.81,4.125\n260.33,4.123\n260.85,4.122\n261.37,4.120\n261.89,4.117\n262.41,4.113\n262.93,4.109\n263.46,4.105\n263.98,4.100\n264.50,4.092\n265.02,4.086\n265.54,4.080\n266.06,4.073\n266.59,4.066\n267.11,4.059\n267.63,4.050\n268.15,4.043\n268.67,4.034\n269.19,4.023\n269.71,4.016\n270.24,4.007\n270.76,4.000\n271.28,3.987\n271.80,3.976\n272.32,3.968\n272.84,3.954\n273.37,3.946\n273.89,3.927\n274.41,3.914\n274.93,3.902\n275.45,3.890\n275.97,3.876\n276.50,3.858\n277.02,3.846\n277.54,3.833\n278.06,3.818\n278.58,3.806\n279.10,3.793\n279.62,3.778\n280.15,3.765\n280.67,3.748\n281.19,3.734\n281.71,3.721\n282.23,3.708\n282.75,3.695\n283.28,3.679\n283.80,3.667\n284.30,3.655\n284.84,3.644\n285.36,3.634\n285.88,3.618\n286.40,3.605\n286.93,3.587\n287.45,3.571\n287.97,3.557\n288.49,3.542\n289.01,3.527\n289.53,3.514\n290.06,3.500\n290.58,3.483\n291.10,3.474\n291.62,3.461\n292.14,3.448\n292.66,3.435\n293.18,3.421\n293.71,3.407\n294.23,3.395\n294.75,3.380\n295.27,3.361\n295.79,3.338\n296.31,3.324\n296.84,3.306\n297.36,3.291\n297.88,3.276\n298.35,3.259\n298.90,3.242\n299.44,3.226\n299.97,3.208\n300.49,3.190\n301.01,3.170\n301.48,3.157\n302.05,3.139\n302.57,3.117\n303.10,3.100\n303.62,3.082\n304.17,3.062\n304.66,3.044\n305.17,3.023\n305.70,3.001\n306.22,2.979\n306.75,2.960\n307.27,2.938\n307.86,2.915\n308.31,2.893\n308.83,2.867\n309.35,2.843\n309.87,2.822\n310.40,2.799\n310.92,2.775\n311.45,2.749\n312.15,2.705\n312.61,2.673\n313.20,2.640\n313.73,2.608\n314.23,2.578\n315.11,2.531\n315.96,2.477\n317.41,2.399\n319.03,2.301\n##END=\n'