b'##TITLE=Hypoxanthine\n##JCAMP-DX=4.24\n##DATA TYPE=UV/VIS SPECTRUM\n##ORIGIN=INSTITUTE OF ENERGY PROBLEMS OF CHEMICAL PHYSICS, RAS\n##OWNER=INEP CP RAS, NIST OSRD\nCollection (C) 2007 copyright by the U.S. Secretary of Commerce\non behalf of the United States of America. All rights reserved.\n##CAS REGISTRY NO=68-94-0\n##MOLFORM=C5H4N4O\n##MP=150 dec\n##SOURCE REFERENCE=RAS UV No. 10748\n##$NIST SQUIB=1948CAV/BRO3875\n##$NIST SOURCE=TYUGLMTE\n##SPECTROMETER/DATA SYSTEM=Beckman DU\n##XUNITS=Wavelength (nm)\n##YUNITS=Logarithm epsilon\n##XFACTOR=1.0\n##YFACTOR=1.0\n##FIRSTX=222.91\n##LASTX=279.89\n##FIRSTY=3.737\n##MAXX=279.89\n##MINX=222.91\n##MAXY=4.035\n##MINY=3.184\n##NPOINTS=76\n##$REF AUTHOR=Cavalieri, L.F.; Brown, G.B.\n##$REF JOURNAL=J. Am. Chem. Soc.\n##$REF VOLUME=70\n##$REF PAGE=3875\n##$REF DATE=1948\n##XYPOINTS=(XY..XY)\n222.91,3.737\n223.13,3.737\n223.35,3.735\n223.58,3.732\n224.25,3.704\n224.92,3.692\n225.59,3.673\n226.26,3.671\n226.93,3.650\n227.60,3.640\n228.27,3.640\n228.94,3.635\n229.61,3.635\n230.28,3.638\n230.95,3.640\n231.62,3.643\n232.29,3.645\n232.96,3.650\n234.30,3.669\n235.64,3.699\n236.98,3.739\n237.65,3.756\n238.32,3.775\n239.66,3.817\n240.34,3.829\n241.68,3.853\n242.35,3.867\n243.02,3.879\n243.69,3.893\n244.36,3.909\n245.03,3.921\n245.70,3.931\n247.04,3.954\n247.71,3.964\n249.05,3.990\n249.72,3.999\n250.39,4.004\n251.06,4.011\n251.73,4.020\n252.40,4.025\n253.07,4.032\n253.74,4.030\n254.41,4.032\n255.08,4.035\n255.75,4.035\n256.42,4.035\n257.09,4.035\n257.77,4.032\n258.44,4.030\n261.12,4.002\n261.79,3.992\n263.13,3.976\n263.80,3.964\n264.47,3.952\n265.14,3.938\n265.81,3.921\n266.48,3.909\n267.15,3.893\n267.82,3.874\n268.49,3.834\n269.16,3.796\n269.83,3.772\n270.50,3.746\n271.17,3.716\n271.84,3.692\n272.51,3.659\n273.18,3.624\n273.85,3.581\n274.53,3.546\n275.20,3.517\n275.87,3.475\n276.54,3.428\n277.21,3.369\n277.88,3.331\n278.55,3.255\n279.89,3.184\n##END=\n'