b'##TITLE=1H-Imidazole, 2-methyl-\n##JCAMP-DX=4.24\n##DATA TYPE=UV/VIS SPECTRUM\n##ORIGIN=INSTITUTE OF ENERGY PROBLEMS OF CHEMICAL PHYSICS, RAS\n##OWNER=INEP CP RAS, NIST OSRD\nCollection (C) 2007 copyright by the U.S. Secretary of Commerce\non behalf of the United States of America. All rights reserved.\n##CAS REGISTRY NO=693-98-1\n##MOLFORM=C4H6N2\n##MP=142\n##BP=267-268\n##SOURCE REFERENCE=RAS UV No. 17140\n##$NIST SQUIB=1987SOR/BOR4255\n##$NIST SOURCE=TYUGLMTE\n##SPECTROMETER/DATA SYSTEM=Hewlett-Packard 8450 A\n##XUNITS=Wavelength (nm)\n##YUNITS=Logarithm epsilon\n##XFACTOR=1.0\n##YFACTOR=1.0\n##FIRSTX=200.95\n##LASTX=243.48\n##FIRSTY=3.913\n##MAXX=243.48\n##MINX=200.95\n##MAXY=3.913\n##MINY=0.882\n##NPOINTS=72\n##$REF AUTHOR=Sorrell, T.N.; Borovik, A.S.\n##$REF JOURNAL=J. Am. Chem. Soc.\n##$REF VOLUME=109\n##$REF PAGE=4255\n##$REF DATE=1987\n##XYPOINTS=(XY..XY)\n200.95,3.913\n201.72,3.913\n202.50,3.912\n203.27,3.911\n204.05,3.911\n204.82,3.907\n205.60,3.906\n206.37,3.902\n207.15,3.900\n207.92,3.896\n208.61,3.891\n209.30,3.885\n209.99,3.879\n210.59,3.871\n211.19,3.863\n211.71,3.853\n212.23,3.844\n212.74,3.835\n213.26,3.827\n213.78,3.818\n214.29,3.808\n214.72,3.797\n215.24,3.786\n215.67,3.775\n216.10,3.763\n216.53,3.751\n217.05,3.739\n217.48,3.726\n217.91,3.713\n218.43,3.700\n218.94,3.686\n219.37,3.672\n219.89,3.657\n220.41,3.644\n220.92,3.629\n221.44,3.615\n221.96,3.598\n222.47,3.580\n222.99,3.562\n223.51,3.543\n224.02,3.523\n224.63,3.506\n225.14,3.487\n225.66,3.464\n226.18,3.444\n226.69,3.419\n227.21,3.396\n227.73,3.372\n228.16,3.342\n228.76,3.315\n229.36,3.285\n229.88,3.254\n230.48,3.220\n231.00,3.184\n231.60,3.151\n232.20,3.108\n232.72,3.060\n233.41,3.015\n234.01,2.966\n234.62,2.910\n235.30,2.859\n235.99,2.786\n236.68,2.735\n237.37,2.658\n238.06,2.588\n238.81,2.527\n239.61,2.441\n240.38,2.320\n241.22,2.177\n241.93,1.987\n242.71,1.477\n243.48,0.882\n##END=\n'