b'##TITLE=Pyridine, 1-oxide\n##JCAMP-DX=4.24\n##DATA TYPE=UV/VIS SPECTRUM\n##ORIGIN=INSTITUTE OF ENERGY PROBLEMS OF CHEMICAL PHYSICS, RAS\n##OWNER=INEP CP RAS, NIST OSRD\nCollection (C) 2007 copyright by the U.S. Secretary of Commerce\non behalf of the United States of America. All rights reserved.\n##CAS REGISTRY NO=694-59-7\n##MOLFORM=C5H5NO\n##MP=65.5\n##BP=146-7(13)\n##SOURCE REFERENCE=RAS UV No. 9078\n##$NIST SQUIB=1967DOR/ZIOg5/4C\n##$NIST SOURCE=TSGMTE\n##SPECTROMETER/DATA SYSTEM=Zeiss PMQ II\n##XUNITS=Wavelength (nm)\n##YUNITS=Logarithm epsilon\n##XFACTOR=1.000000\n##YFACTOR=1.000000\n##FIRSTX=350.0321\n##LASTX=240.8551\n##FIRSTY=1.09612\n##MAXX=350.032\n##MINX=240.855\n##MAXY=4.22098\n##MINY=1.09612\n##NPOINTS=1000\n##$REF AUTHOR=Dorr, F.; Ziolkowsky, B.; Munchen, T.H.\n##$REF TITLE=Pyridine 1-oxide\n##$REF BOOK TITLE=UV Atlas of Organic Compounds - Vol. 3\n##$REF PAGE=G5/4\n##$REF DATE=1967\n##$REF PUBLISHER=Plenum Press\n##$REF LOCATION=New York\n##XYPOINTS=(XY..XY)\n350.0321,1.096121\n349.7778,1.119536\n349.7514,1.098176\n349.5289,1.121589\n347.7276,1.562948\n347.5204,1.596786\n347.4816,1.565002\n347.2877,1.634951\n347.2440,1.599098\n347.0813,1.669043\n347.0426,1.637260\n346.8362,1.671098\n344.3117,2.123198\n344.0833,2.161363\n344.0401,2.125256\n343.8804,2.195201\n343.8424,2.163417\n343.6781,2.229295\n343.6401,2.197510\n343.4481,2.265424\n343.4074,2.231352\n343.2081,2.267479\n341.0048,2.719557\n340.7933,2.768400\n340.7383,2.721614\n340.6041,2.810630\n340.5570,2.770455\n340.4154,2.853114\n340.3683,2.812939\n340.1972,2.895601\n340.1502,2.855426\n340.0140,2.942408\n339.9617,2.897656\n339.7886,2.952854\n339.7788,2.944463\n339.5243,2.955165\n339.5217,2.952877\n339.2898,2.957220\n339.2874,2.955185\n339.0556,2.959274\n339.0532,2.957240\n338.5539,2.959317\n338.3160,2.957304\n338.0514,2.957326\n338.0490,2.955292\n337.8141,2.955312\n337.8042,2.946667\n337.5673,2.944653\n337.5600,2.938296\n337.2942,2.936285\n337.2793,2.923317\n337.0432,2.921303\n337.0140,2.895876\n336.7782,2.893862\n336.7537,2.872503\n336.4892,2.870492\n336.4601,2.845064\n336.2251,2.843050\n336.2056,2.826014\n335.9707,2.823746\n335.9562,2.811032\n335.6930,2.809021\n335.6834,2.800630\n335.4492,2.798361\n335.4420,2.792005\n334.7132,2.785711\n334.2530,2.785752\n333.9924,2.783741\n333.7631,2.783761\n333.5390,2.788104\n333.5365,2.785816\n333.3033,2.807198\n333.2936,2.798552\n333.2890,2.794484\n333.2841,2.790161\n333.0653,2.798573\n333.0607,2.794504\n332.8612,2.819952\n332.8469,2.807238\n332.8444,2.804950\n332.8373,2.798593\n332.8327,2.794525\n332.6193,2.832689\n332.6073,2.822009\n332.5811,2.798616\n332.5766,2.794547\n332.4083,2.847457\n332.3919,2.832709\n332.1980,2.862479\n332.1838,2.849766\n331.9616,2.879284\n331.9451,2.864536\n331.7588,2.900664\n331.7376,2.881593\n331.5538,2.919755\n331.5349,2.902718\n331.3161,2.934526\n331.3019,2.921812\n331.1093,2.951582\n331.0905,2.934546\n330.9074,2.972707\n330.8863,2.953637\n330.6801,2.996124\n330.6567,2.975019\n330.4742,3.013180\n330.4576,2.998178\n330.2800,3.040662\n330.2755,3.036594\n330.2685,3.030237\n330.2519,3.015235\n330.0325,3.045008\n330.0278,3.040685\n330.0233,3.036617\n330.0163,3.030260\n329.8204,3.055708\n329.8109,3.047062\n329.8039,3.040706\n329.7995,3.036637\n329.6270,3.083190\n329.5991,3.057762\n329.3898,3.095926\n329.3781,3.085247\n329.1877,3.115017\n329.1690,3.097981\n328.9766,3.125717\n328.9675,3.117326\n328.7473,3.144811\n328.7287,3.127774\n328.5412,3.159579\n328.5252,3.144831\n328.3358,3.174602\n328.3219,3.161888\n328.0979,3.185050\n328.0887,3.176659\n327.8860,3.193715\n327.8766,3.185070\n327.6720,3.200093\n327.6673,3.195770\n327.4582,3.206470\n327.4535,3.202147\n327.2194,3.214884\n327.2125,3.208527\n327.0040,3.219227\n327.0018,3.217193\n326.7911,3.225604\n326.7842,3.219247\n326.5464,3.227661\n326.5442,3.225627\n326.3297,3.229970\n326.3272,3.227681\n326.1176,3.236347\n326.1130,3.232024\n325.8739,3.238404\n325.8718,3.236370\n325.6557,3.238425\n325.4399,3.240479\n324.9801,3.242811\n324.9777,3.240522\n324.7653,3.244865\n324.7631,3.242831\n324.5214,3.244888\n324.3071,3.246943\n322.5056,3.247113\n322.2943,3.249422\n321.6280,3.249486\n321.4176,3.251540\n321.1832,3.255886\n321.1787,3.251563\n320.9733,3.257940\n320.9712,3.255906\n320.7616,3.257960\n320.5324,3.266374\n320.5258,3.260018\n320.1236,3.279129\n320.1149,3.270738\n319.9240,3.289829\n319.9153,3.281438\n319.6984,3.300531\n319.6897,3.292140\n319.4993,3.311231\n319.4904,3.302586\n319.2982,3.319642\n319.2916,3.313286\n319.0711,3.328056\n319.0646,3.321700\n318.8729,3.338756\n318.8642,3.330365\n318.6725,3.347168\n318.6660,3.340811\n318.4486,3.357870\n318.4400,3.349479\n318.2488,3.366282\n318.2423,3.359925\n318.0451,3.370625\n318.0430,3.368590\n317.8156,3.374970\n317.8112,3.370647\n317.6122,3.379059\n317.6101,3.377025\n317.4092,3.383402\n317.4072,3.381368\n317.1807,3.387747\n317.1763,3.383425\n316.9760,3.389802\n316.9739,3.387768\n316.7718,3.392111\n316.7695,3.389822\n316.5398,3.392134\n316.1347,3.398531\n316.1323,3.396243\n315.9056,3.400588\n315.9036,3.398554\n315.4957,3.400629\n315.2676,3.402686\n315.0656,3.404995\n315.0633,3.402706\n314.8636,3.407049\n314.8616,3.405015\n314.6365,3.409106\n314.6344,3.407072\n314.4353,3.411415\n314.4330,3.409127\n314.2321,3.411436\n314.0058,3.413493\n313.8052,3.415547\n313.8032,3.413513\n313.6071,3.419890\n313.6051,3.417856\n313.3797,3.419913\n313.1799,3.421968\n312.9806,3.424277\n312.9783,3.421988\n312.7812,3.426331\n312.7792,3.424297\n311.9390,3.437097\n311.9367,3.434809\n311.3250,3.447586\n311.3211,3.443517\n311.1281,3.449895\n311.1258,3.447606\n310.9311,3.451949\n310.9291,3.449915\n310.7118,3.456295\n310.7076,3.451972\n310.5173,3.460384\n310.5154,3.458349\n310.1049,3.469072\n310.1007,3.464749\n309.9093,3.471127\n309.9073,3.469092\n309.4985,3.479815\n309.4943,3.475493\n309.1111,3.486213\n309.1089,3.483924\n308.8941,3.490304\n308.8902,3.486236\n308.5105,3.498990\n308.5063,3.494667\n308.1011,3.505390\n308.0990,3.503102\n307.9121,3.511767\n307.9080,3.507445\n307.6949,3.513824\n307.6929,3.511790\n307.5064,3.520202\n307.5003,3.513845\n307.3161,3.524545\n307.3120,3.520222\n307.0997,3.526602\n307.0978,3.524568\n306.9119,3.532979\n306.9078,3.528656\n306.7225,3.537322\n306.7183,3.532999\n306.5110,3.543702\n306.5069,3.539379\n306.3217,3.547790\n306.3179,3.543722\n306.1349,3.554168\n306.1310,3.550099\n305.9444,3.556476\n305.9423,3.554188\n305.7360,3.564890\n305.7300,3.558534\n305.5460,3.567199\n305.5438,3.564911\n305.3601,3.573576\n305.3560,3.569254\n305.1484,3.577668\n305.1464,3.575634\n304.9629,3.584045\n304.9591,3.579977\n304.7799,3.592711\n304.7739,3.586354\n304.5671,3.594768\n304.5651,3.592734\n304.3843,3.603179\n304.3783,3.596822\n304.1979,3.607522\n304.1938,3.603199\n303.9899,3.613902\n303.9839,3.607545\n303.8040,3.618245\n303.7999,3.613922\n303.6202,3.624622\n303.6162,3.620299\n303.4130,3.631002\n303.4070,3.624645\n303.2275,3.635091\n303.2256,3.633056\n303.0466,3.643756\n303.0407,3.637399\n302.8380,3.647848\n302.8342,3.643779\n302.6575,3.656513\n302.6516,3.650156\n302.4711,3.658568\n302.4693,3.656534\n302.2676,3.667236\n302.2617,3.660879\n302.0875,3.675647\n302.0798,3.667256\n301.9040,3.679990\n301.9000,3.675668\n301.6991,3.686370\n301.6951,3.682048\n301.5197,3.694782\n301.5139,3.688425\n301.3368,3.699125\n301.3328,3.694802\n301.1346,3.707539\n301.1287,3.701182\n300.9559,3.715950\n300.9482,3.707559\n300.7737,3.720293\n300.7697,3.715970\n300.5722,3.728707\n300.5645,3.720316\n300.3944,3.737373\n300.3865,3.728727\n300.2126,3.741461\n300.2089,3.737393\n300.0121,3.750130\n300.0042,3.741484\n299.8347,3.758541\n299.8271,3.750150\n299.6539,3.762884\n299.6499,3.758561\n299.4751,3.769261\n299.4711,3.764939\n299.2753,3.777675\n299.2695,3.771318\n299.0990,3.786341\n299.0933,3.779984\n298.9188,3.790430\n298.9170,3.788395\n298.7200,3.799098\n298.7143,3.792741\n298.5460,3.809543\n298.5385,3.801152\n298.3667,3.813886\n298.3628,3.809564\n298.1684,3.822300\n298.1627,3.815944\n297.9935,3.830966\n297.9878,3.824609\n297.8185,3.839377\n297.8109,3.830986\n297.6173,3.843723\n297.6154,3.841689\n297.4448,3.854423\n297.4370,3.845778\n297.2704,3.862834\n297.2647,3.856477\n297.0756,3.873537\n297.0661,3.862857\n296.9017,3.881948\n296.8942,3.873557\n296.7280,3.890360\n296.7205,3.881968\n296.5321,3.899028\n296.5265,3.892671\n296.3570,3.905405\n296.3532,3.901082\n296.1839,3.913816\n296.1783,3.907460\n295.9885,3.922230\n295.9829,3.915873\n295.8179,3.932930\n295.8105,3.924539\n295.6419,3.937273\n295.6381,3.932951\n295.4472,3.945687\n295.4416,3.939330\n295.2754,3.954353\n295.2678,3.945708\n295.1036,3.962764\n295.0962,3.954373\n294.9060,3.967110\n294.9022,3.962787\n294.7347,3.975521\n294.7291,3.969164\n294.5635,3.983933\n294.5579,3.977576\n294.3684,3.990312\n294.3649,3.986244\n294.1959,3.996690\n294.1923,3.992621\n294.0273,4.007389\n294.0200,3.998998\n293.8330,4.013769\n293.8292,4.009447\n293.4876,4.024489\n293.4820,4.018133\n293.3178,4.032901\n293.3123,4.026544\n293.1227,4.037246\n293.1189,4.032924\n292.9533,4.045658\n292.9478,4.039301\n292.7807,4.050001\n292.7770,4.045678\n292.5880,4.056381\n292.5825,4.050024\n292.4158,4.060724\n292.4138,4.058435\n292.2455,4.067101\n292.2418,4.062778\n292.0535,4.073481\n292.0498,4.069158\n291.8817,4.077569\n291.8800,4.075535\n291.7140,4.086235\n291.7086,4.079878\n291.5190,4.088292\n291.5173,4.086258\n291.3498,4.094669\n291.3461,4.090347\n291.1791,4.099012\n291.1771,4.096724\n290.9902,4.107426\n290.9848,4.101069\n290.8179,4.109481\n290.8162,4.107447\n290.6497,4.116112\n290.6441,4.109501\n290.2899,4.126581\n290.2845,4.120224\n289.9311,4.137304\n289.9257,4.130947\n289.7601,4.139358\n289.7584,4.137324\n289.5929,4.145735\n289.5875,4.139378\n289.4009,4.148047\n289.3990,4.145758\n289.2322,4.152135\n289.2305,4.150101\n289.0657,4.158513\n289.0603,4.152156\n288.8744,4.160824\n288.8725,4.158535\n288.7046,4.162878\n288.7029,4.160844\n288.5386,4.169256\n288.5333,4.162899\n288.3478,4.171313\n288.3461,4.169279\n288.1806,4.175656\n288.1769,4.171333\n288.0135,4.179999\n288.0099,4.175676\n287.8234,4.182056\n287.8217,4.180022\n287.6548,4.184110\n287.6531,4.182076\n287.4884,4.188453\n287.4847,4.184131\n287.3202,4.190508\n287.3185,4.188474\n287.1312,4.192819\n287.1293,4.190531\n286.9617,4.192840\n286.6076,4.199240\n286.6057,4.196951\n286.4404,4.201294\n286.4388,4.199260\n286.2718,4.201315\n285.9212,4.210003\n285.9177,4.205681\n285.5644,4.210046\n285.3985,4.212101\n285.0429,4.212144\n284.8776,4.214199\n284.3588,4.216551\n284.3570,4.214262\n284.0076,4.218628\n284.0059,4.216594\n283.8418,4.218649\n283.6778,4.220703\n281.4610,4.220978\n281.2762,4.218966\n281.1136,4.218987\n280.9495,4.216973\n280.7670,4.216996\n280.7652,4.214707\n279.9368,4.214812\n279.7540,4.212800\n279.4324,4.212841\n279.4308,4.210807\n279.2503,4.210830\n279.2485,4.208541\n279.0882,4.208562\n279.0866,4.206527\n278.9265,4.206548\n278.7448,4.204282\n278.5851,4.204302\n278.4240,4.202289\n278.2447,4.202311\n278.2431,4.200277\n278.0822,4.198009\n278.0806,4.195975\n277.9217,4.195995\n277.7415,4.193984\n277.5829,4.194004\n277.5812,4.191716\n277.4228,4.191736\n277.4212,4.189702\n277.2417,4.187691\n277.2399,4.185402\n277.0819,4.185423\n276.9225,4.183409\n276.7452,4.183432\n276.7436,4.181397\n276.4256,4.177115\n276.4241,4.175081\n276.2670,4.175102\n276.2652,4.172813\n276.0888,4.172836\n275.7725,4.168808\n275.7707,4.166520\n275.5933,4.164508\n275.4372,4.164529\n275.4356,4.162495\n275.2797,4.162515\n275.2779,4.160226\n275.1012,4.158215\n275.0996,4.156181\n274.9440,4.156201\n274.9423,4.153913\n274.6092,4.149888\n274.6075,4.147599\n274.4509,4.145585\n274.4494,4.143551\n274.2946,4.143571\n274.2928,4.141283\n274.1188,4.141306\n274.1173,4.139272\n273.9613,4.137258\n273.9596,4.134969\n273.8053,4.134990\n273.8038,4.132955\n273.4732,4.128676\n273.4702,4.124608\n273.3164,4.124628\n273.3147,4.122340\n273.1420,4.122362\n273.1405,4.120328\n272.9856,4.118314\n272.9839,4.116026\n272.8291,4.114012\n272.8274,4.111724\n272.6553,4.111746\n272.6538,4.109712\n272.4995,4.107698\n272.4977,4.105410\n272.3436,4.103396\n272.3421,4.101362\n272.0151,4.097082\n272.0118,4.092760\n271.8597,4.092780\n271.8582,4.090746\n271.6858,4.088735\n271.6841,4.086446\n271.5309,4.084432\n271.5294,4.082398\n271.2043,4.078119\n271.2011,4.073796\n271.0484,4.071782\n271.0469,4.069748\n270.8942,4.067480\n270.8927,4.065446\n270.7403,4.063432\n270.7386,4.061143\n270.5676,4.059132\n270.5661,4.057098\n270.4140,4.054830\n270.4110,4.050761\n270.2607,4.050782\n270.2590,4.048493\n270.0886,4.046482\n270.0854,4.042159\n269.9355,4.042179\n269.9325,4.038111\n269.7810,4.035843\n269.7795,4.033809\n269.6097,4.031797\n269.6080,4.029509\n269.4571,4.027495\n269.4540,4.023172\n269.1339,4.018893\n269.1292,4.012536\n268.8286,4.008508\n268.8270,4.006220\n268.6584,4.004209\n268.6569,4.002174\n268.5085,4.002195\n268.5069,3.999906\n268.3572,3.997892\n268.3526,3.991536\n268.1861,3.991558\n268.1846,3.989524\n268.0367,3.989545\n268.0321,3.983188\n267.8845,3.983208\n267.8813,3.978885\n267.7154,3.978908\n267.7123,3.974586\n267.5635,3.972572\n267.5603,3.968249\n267.4132,3.968269\n267.4086,3.961913\n267.2432,3.961935\n267.2418,3.959901\n267.0935,3.957887\n267.0889,3.951531\n266.9423,3.951551\n266.9392,3.947228\n266.7744,3.947251\n266.7698,3.940894\n266.6236,3.940915\n266.6190,3.934558\n266.4712,3.932290\n266.4698,3.930255\n266.3041,3.928244\n266.2996,3.921887\n266.1538,3.921908\n266.1507,3.917585\n266.0051,3.917605\n265.9991,3.909214\n265.8355,3.909237\n265.8324,3.904914\n265.6857,3.902901\n265.6826,3.898578\n265.5361,3.896564\n265.5330,3.892241\n265.3866,3.890227\n265.3835,3.885905\n265.2192,3.883893\n265.2162,3.879571\n265.0701,3.877557\n265.0671,3.873234\n264.9212,3.871220\n264.9181,3.866898\n264.7544,3.864886\n264.7499,3.858530\n264.6042,3.856261\n264.6013,3.852193\n264.4558,3.849925\n264.4529,3.845857\n264.2896,3.843591\n264.2851,3.837234\n264.1415,3.837254\n264.1356,3.828863\n263.9922,3.828884\n263.9892,3.824561\n263.8280,3.824584\n263.8221,3.816193\n263.6790,3.816213\n263.6746,3.809856\n263.5301,3.807588\n263.5272,3.803520\n263.3650,3.801254\n263.3622,3.797186\n263.2196,3.797206\n263.2135,3.788561\n263.0697,3.786547\n263.0683,3.784513\n262.9067,3.782247\n262.9022,3.775890\n262.7601,3.775911\n262.7543,3.767520\n262.6124,3.767540\n262.6094,3.763217\n262.4485,3.761206\n262.4441,3.754849\n262.3025,3.754869\n262.2981,3.748513\n262.1550,3.746244\n262.1522,3.742176\n261.9917,3.739910\n261.9889,3.735842\n261.8462,3.733574\n261.8418,3.727217\n261.6995,3.725203\n261.6965,3.720881\n261.5367,3.718869\n261.5337,3.714547\n261.3917,3.712533\n261.3873,3.706176\n261.2469,3.706196\n261.2439,3.701873\n261.0847,3.699862\n261.0803,3.693505\n260.9402,3.693526\n260.9372,3.689203\n260.7959,3.687189\n260.7929,3.682866\n260.6342,3.680855\n260.6299,3.674498\n260.4903,3.674519\n260.4873,3.670196\n260.3464,3.668182\n260.3421,3.661825\n260.2027,3.661846\n260.1968,3.653200\n260.0403,3.653223\n260.0375,3.649155\n259.8969,3.646887\n259.8942,3.642818\n259.7538,3.640550\n259.7510,3.636482\n259.5934,3.634216\n259.5906,3.630148\n259.4506,3.627880\n259.4462,3.621523\n259.3065,3.619509\n259.3022,3.613152\n259.1467,3.613175\n259.1438,3.608852\n259.0043,3.606838\n259.0000,3.600481\n258.8608,3.598468\n258.8578,3.594145\n258.7015,3.592134\n258.7000,3.589845\n258.5610,3.587831\n258.5567,3.581474\n258.4193,3.581495\n258.4136,3.573104\n258.2592,3.573127\n258.2563,3.568804\n258.1177,3.566536\n258.1134,3.560179\n257.9751,3.558165\n257.9722,3.553842\n257.8169,3.551831\n257.8140,3.547508\n257.6760,3.545495\n257.6731,3.541172\n257.5353,3.539158\n257.5310,3.532801\n257.3763,3.530790\n257.3748,3.528501\n257.2372,3.526488\n257.2330,3.520131\n257.0956,3.518117\n257.0914,3.511760\n256.9370,3.509494\n256.9357,3.507460\n256.7986,3.505446\n256.7971,3.503158\n256.6602,3.501144\n256.6546,3.492753\n256.5007,3.490487\n256.4994,3.488453\n256.3628,3.486439\n256.3584,3.479828\n256.2233,3.479848\n256.2191,3.473492\n256.0659,3.471480\n256.0646,3.469446\n255.9283,3.467178\n255.9227,3.458787\n255.7881,3.458807\n255.7853,3.454485\n255.6326,3.452473\n255.6298,3.448151\n255.4941,3.446137\n255.4899,3.439780\n255.3544,3.437766\n255.3515,3.433443\n255.2162,3.431429\n255.2133,3.427107\n255.0614,3.425096\n255.0572,3.418739\n254.9235,3.418759\n254.9206,3.414436\n254.7857,3.412422\n254.7829,3.408100\n254.6314,3.406088\n254.6273,3.399732\n254.4925,3.397463\n254.4898,3.393395\n254.3552,3.391127\n254.3524,3.386804\n254.2015,3.384793\n254.1986,3.380470\n254.0645,3.378456\n254.0617,3.374134\n253.9277,3.372120\n253.9248,3.367797\n253.7744,3.365786\n253.7703,3.359429\n253.6366,3.357415\n253.6338,3.353093\n253.5002,3.351079\n253.4974,3.346756\n253.3475,3.344745\n253.3434,3.338388\n253.2114,3.338408\n253.2073,3.332051\n253.0740,3.329783\n253.0727,3.327749\n252.9233,3.325738\n252.9192,3.319381\n252.7877,3.319401\n252.7836,3.313044\n252.6508,3.310776\n252.6482,3.306708\n252.5006,3.306731\n252.4965,3.300374\n252.3639,3.298106\n252.3612,3.293783\n252.2289,3.291769\n252.2262,3.287446\n252.0790,3.287469\n252.0737,3.279078\n251.9430,3.279099\n251.9390,3.272742\n251.8072,3.270728\n251.8057,3.268439\n251.6578,3.266428\n251.6537,3.260071\n251.5222,3.258057\n251.5195,3.253735\n251.3894,3.253755\n251.3854,3.247398\n251.2380,3.245387\n251.2365,3.243098\n251.1055,3.241085\n251.1014,3.234728\n250.6928,3.228434\n250.6887,3.222078\n250.5583,3.220064\n250.5515,3.209384\n250.4210,3.207116\n250.4197,3.205082\n250.2734,3.203070\n250.2694,3.196714\n250.1392,3.194445\n250.1366,3.190377\n250.0066,3.188109\n250.0040,3.184041\n249.8580,3.181775\n249.8540,3.175418\n249.7257,3.175438\n249.7217,3.169082\n249.5935,3.169102\n249.5909,3.165034\n249.4454,3.162768\n249.4414,3.156411\n249.3135,3.156431\n249.3123,3.154397\n249.1832,3.152383\n249.1792,3.146027\n249.0356,3.146049\n249.0302,3.137404\n248.9027,3.137424\n248.9002,3.133356\n248.7714,3.131088\n248.7689,3.127019\n248.6258,3.127042\n248.6218,3.120686\n248.4933,3.118417\n248.4906,3.114095\n248.3624,3.112081\n248.3597,3.107758\n248.2158,3.105747\n248.2145,3.103713\n248.0865,3.101445\n248.0825,3.095088\n247.9548,3.093074\n247.9508,3.086717\n247.8086,3.086740\n247.8034,3.078349\n247.6772,3.078369\n247.6745,3.074046\n247.5472,3.072033\n247.5432,3.065676\n247.4015,3.065699\n247.3976,3.059342\n247.2704,3.057074\n247.2679,3.053005\n247.1408,3.050737\n247.1382,3.046669\n246.9956,3.044403\n246.9917,3.038046\n246.8650,3.036032\n246.8638,3.033998\n246.7371,3.031730\n246.7332,3.025373\n246.5924,3.025396\n246.5885,3.019039\n246.3360,3.014757\n246.3308,3.006366\n246.1893,3.004355\n246.1866,3.000032\n246.0608,2.998018\n246.0582,2.993696\n245.9325,2.991682\n245.9298,2.987359\n245.8043,2.985345\n245.8029,2.983057\n245.6619,2.981045\n245.6580,2.974689\n245.5340,2.974709\n245.5301,2.968352\n245.4049,2.966338\n245.4035,2.964050\n245.2630,2.962038\n245.2604,2.957716\n245.1355,2.955702\n245.1343,2.953668\n245.0094,2.951400\n245.0055,2.945043\n244.8667,2.945066\n244.8655,2.943031\n244.7410,2.941018\n244.7370,2.934406\n244.6126,2.932393\n244.6100,2.928070\n244.4704,2.926059\n244.4692,2.924024\n244.3450,2.921756\n244.3411,2.915399\n244.2184,2.915420\n244.2172,2.913386\n244.0781,2.911374\n244.0742,2.905017\n243.9518,2.905038\n243.9479,2.898681\n243.8242,2.896413\n243.8230,2.894378\n243.6843,2.892367\n243.6805,2.886010\n243.5584,2.886031\n243.5571,2.883742\n243.4339,2.881728\n243.4301,2.875371\n243.2931,2.875394\n243.2919,2.873360\n243.1688,2.871092\n243.1664,2.867024\n243.0435,2.864756\n243.0423,2.862721\n242.9045,2.860710\n242.9007,2.854353\n242.7794,2.854373\n242.7768,2.850051\n242.6544,2.848037\n242.6519,2.843714\n242.5157,2.843737\n242.5143,2.841449\n242.3922,2.839435\n242.3885,2.833078\n242.2677,2.833098\n242.2665,2.831064\n242.1294,2.828799\n242.1270,2.824730\n242.0065,2.824750\n242.0051,2.822462\n241.8835,2.820448\n241.8810,2.816125\n241.7445,2.814114\n241.7433,2.812080\n241.6218,2.809812\n241.6194,2.805743\n241.4994,2.805764\n241.4980,2.803475\n241.3770,2.801461\n241.3744,2.797139\n241.2385,2.795127\n241.2373,2.793093\n241.1163,2.790825\n241.1139,2.786757\n240.9931,2.784489\n240.9919,2.782454\n240.8576,2.782477\n240.8551,2.778155\n##END=\n'