b'##TITLE=Pyrimidine, 2,4,6-trifluoro-\n##JCAMP-DX=4.24\n##DATA TYPE=UV/VIS SPECTRUM\n##ORIGIN=INSTITUTE OF ENERGY PROBLEMS OF CHEMICAL PHYSICS, RAS\n##OWNER=INEP CP RAS, NIST OSRD\nCollection (C) 2007 copyright by the U.S. Secretary of Commerce\non behalf of the United States of America. All rights reserved.\n##CAS REGISTRY NO=696-82-2\n##MOLFORM=C4HF3N2\n##BP=98.5-99\n##SOURCE REFERENCE=RAS UV No. 18927\n##$NIST SQUIB=1975KOP174\n##$NIST SOURCE=TYUGLMTE\n##SPECTROMETER/DATA SYSTEM=SF-16\n##XUNITS=Wavelength (nm)\n##YUNITS=Logarithm epsilon\n##XFACTOR=1.0\n##YFACTOR=1.0\n##FIRSTX=208.75\n##LASTX=244.25\n##FIRSTY=3.032\n##MAXX=244.25\n##MINX=208.75\n##MAXY=3.392\n##MINY=2.563\n##NPOINTS=38\n##$REF AUTHOR=(editor), Koptyug V.A.\n##$REF JOURNAL=Atlas of Spectra of Aromatic and Heterocyclic Compounds\n##$REF VOLUME=8\n##$REF PAGE=174\n##$REF DATE=1975\n##XYPOINTS=(XY..XY)\n208.75,3.032\n209.24,2.994\n210.21,2.962\n211.18,2.929\n212.16,2.924\n213.13,2.919\n214.10,2.924\n215.08,2.933\n216.05,2.952\n217.02,2.971\n217.99,2.999\n218.97,3.032\n219.94,3.046\n220.91,3.088\n221.88,3.125\n222.86,3.149\n223.83,3.177\n224.80,3.210\n225.77,3.238\n226.75,3.285\n227.72,3.308\n228.69,3.336\n229.66,3.355\n230.64,3.374\n231.61,3.383\n232.58,3.392\n233.55,3.388\n234.53,3.378\n235.50,3.364\n236.47,3.336\n237.45,3.280\n238.42,3.210\n239.39,3.135\n240.36,2.980\n241.34,2.901\n242.31,2.840\n243.28,2.732\n244.25,2.563\n##END=\n'