b'##TITLE=Xanthine\n##JCAMP-DX=4.24\n##DATA TYPE=UV/VIS SPECTRUM\n##ORIGIN=INSTITUTE OF ENERGY PROBLEMS OF CHEMICAL PHYSICS, RAS\n##OWNER=INEP CP RAS, NIST OSRD\nCollection (C) 2007 copyright by the U.S. Secretary of Commerce\non behalf of the United States of America. All rights reserved.\n##CAS REGISTRY NO=69-89-6\n##MOLFORM=C5H4N4O2\n##MP=dec\n##BP=sub\n##SOURCE REFERENCE=RAS UV No. 10759\n##$NIST SQUIB=1948CAV/BRO3875\n##$NIST SOURCE=TYUGLMTE\n##SPECTROMETER/DATA SYSTEM=Beckman DU\n##XUNITS=Wavelength (nm)\n##YUNITS=Logarithm epsilon\n##XFACTOR=1.0\n##YFACTOR=1.0\n##FIRSTX=214.66\n##LASTX=290.91\n##FIRSTY=3.716\n##MAXX=290.91\n##MINX=214.66\n##MAXY=3.945\n##MINY=3.106\n##NPOINTS=89\n##$REF AUTHOR=Cavalieri, L.F.; Brown, G.B.\n##$REF JOURNAL=J. Am. Chem. Soc.\n##$REF VOLUME=70\n##$REF PAGE=3875\n##$REF DATE=1948\n##XYPOINTS=(XY..XY)\n214.66,3.716\n214.88,3.719\n215.10,3.721\n215.32,3.723\n215.54,3.725\n215.76,3.728\n215.99,3.730\n216.21,3.732\n216.43,3.734\n216.65,3.737\n216.87,3.739\n217.32,3.744\n218.20,3.755\n219.09,3.768\n219.98,3.784\n220.86,3.795\n221.75,3.814\n222.64,3.834\n223.52,3.854\n224.41,3.863\n225.30,3.879\n226.18,3.884\n227.07,3.890\n227.96,3.895\n228.84,3.895\n229.73,3.897\n230.62,3.897\n231.50,3.897\n232.39,3.895\n233.28,3.893\n234.16,3.884\n235.05,3.863\n235.94,3.843\n236.82,3.825\n237.71,3.809\n238.60,3.795\n239.48,3.775\n241.26,3.746\n242.14,3.730\n243.03,3.723\n243.92,3.716\n244.80,3.707\n245.69,3.705\n246.58,3.707\n247.46,3.710\n248.35,3.714\n250.12,3.728\n251.90,3.746\n252.78,3.759\n253.67,3.773\n254.56,3.793\n255.44,3.807\n256.33,3.825\n257.22,3.847\n258.10,3.859\n258.99,3.872\n259.88,3.884\n260.76,3.897\n261.65,3.908\n262.54,3.920\n263.42,3.933\n264.31,3.938\n265.20,3.945\n266.08,3.945\n266.97,3.945\n268.74,3.938\n269.63,3.938\n271.40,3.913\n272.29,3.897\n273.18,3.881\n274.06,3.868\n274.95,3.843\n276.72,3.802\n277.61,3.777\n278.50,3.746\n279.38,3.710\n280.27,3.669\n281.16,3.637\n282.04,3.588\n282.93,3.545\n283.82,3.508\n284.70,3.475\n285.59,3.429\n286.48,3.375\n287.36,3.323\n288.25,3.285\n289.14,3.221\n290.02,3.138\n290.91,3.106\n##END=\n'