b'##TITLE=Uric acid\n##JCAMP-DX=4.24\n##DATA TYPE=UV/VIS SPECTRUM\n##ORIGIN=INSTITUTE OF ENERGY PROBLEMS OF CHEMICAL PHYSICS, RAS\n##OWNER=INEP CP RAS, NIST OSRD\nCollection (C) 2007 copyright by the U.S. Secretary of Commerce\non behalf of the United States of America. All rights reserved.\n##CAS REGISTRY NO=69-93-2\n##MOLFORM=C5H4N4O3\n##MP=dec\n##BP=dec\n##SOURCE REFERENCE=RAS UV No. 10767\n##$NIST SQUIB=1951PRU/SCH45\n##$NIST SOURCE=TYUGLMTE\n##SPECTROMETER/DATA SYSTEM=n.i.g.\n##XUNITS=Wavelength (nm)\n##YUNITS=Logarithm epsilon\n##XFACTOR=1.0\n##YFACTOR=1.0\n##FIRSTX=233.15\n##LASTX=378.8\n##FIRSTY=3.857\n##MAXX=378.8\n##MINX=233.15\n##MAXY=4.246\n##MINY=1.44\n##NPOINTS=141\n##$REF AUTHOR=Pruckner, F.; Schwuttke, G.\n##$REF JOURNAL=Naturwiss.\n##$REF VOLUME=38\n##$REF PAGE=45\n##$REF DATE=1951\n##XYPOINTS=(XY..XY)\n233.15,3.857\n233.42,3.863\n233.70,3.874\n233.97,3.880\n234.24,3.886\n234.51,3.897\n234.78,3.903\n235.05,3.914\n235.33,3.919\n236.41,3.970\n237.50,4.010\n238.59,4.066\n239.67,4.111\n240.76,4.145\n241.85,4.173\n242.93,4.201\n244.02,4.218\n245.11,4.229\n246.20,4.241\n247.28,4.246\n248.37,4.246\n249.46,4.241\n250.54,4.229\n251.63,4.224\n252.72,4.196\n253.80,4.173\n254.89,4.139\n255.98,4.105\n257.07,4.060\n258.15,4.015\n259.24,3.981\n260.33,3.925\n261.41,3.880\n262.50,3.841\n263.59,3.801\n264.67,3.762\n265.76,3.722\n266.85,3.683\n267.93,3.649\n269.02,3.621\n270.11,3.587\n271.20,3.559\n272.28,3.531\n273.37,3.508\n274.46,3.491\n275.54,3.469\n276.63,3.446\n277.72,3.435\n278.80,3.418\n279.89,3.395\n280.98,3.378\n282.07,3.350\n283.15,3.311\n284.24,3.277\n285.33,3.226\n286.41,3.170\n287.50,3.074\n288.59,2.956\n289.67,2.916\n290.76,2.837\n291.85,2.668\n292.93,2.516\n294.02,2.308\n295.11,2.138\n296.20,2.060\n297.28,2.003\n298.37,1.952\n299.46,1.919\n300.54,1.885\n301.63,1.862\n302.72,1.834\n303.80,1.823\n304.89,1.817\n305.98,1.812\n307.07,1.800\n308.15,1.795\n309.24,1.795\n310.33,1.800\n311.41,1.806\n312.50,1.812\n313.59,1.817\n314.67,1.834\n315.76,1.840\n316.85,1.862\n317.93,1.868\n319.02,1.868\n320.11,1.874\n321.20,1.902\n322.28,1.907\n323.37,1.924\n324.46,1.936\n325.54,1.952\n326.63,1.958\n327.72,1.975\n328.80,1.981\n329.89,1.986\n330.98,2.009\n332.07,2.020\n333.15,2.031\n334.24,2.037\n335.33,2.043\n336.41,2.054\n337.50,2.060\n338.59,2.060\n339.67,2.065\n340.76,2.076\n341.85,2.082\n342.93,2.082\n344.02,2.082\n345.11,2.082\n346.20,2.082\n347.28,2.082\n348.37,2.082\n349.46,2.082\n350.54,2.071\n351.63,2.060\n352.72,2.054\n353.80,2.037\n354.89,2.026\n355.98,1.992\n357.07,1.981\n358.15,1.952\n359.24,1.930\n360.33,1.896\n361.41,1.874\n362.50,1.857\n363.59,1.829\n364.67,1.800\n365.76,1.778\n366.85,1.755\n367.93,1.727\n369.02,1.693\n370.11,1.659\n371.20,1.626\n372.28,1.597\n373.37,1.575\n374.46,1.547\n375.54,1.513\n376.63,1.485\n377.72,1.451\n378.80,1.440\n##END=\n'