b'##TITLE=7-amino-[1,2,4]triazolo[1,5-c]pyrimidine-5(6H)-thione\n##JCAMP-DX=4.24\n##DATA TYPE=UV/VIS SPECTRUM\n##ORIGIN=INSTITUTE OF ENERGY PROBLEMS OF CHEMICAL PHYSICS, RAS\n##OWNER=INEP CP RAS, NIST OSRD\nCollection (C) 2007 copyright by the U.S. Secretary of Commerce\non behalf of the United States of America. All rights reserved.\n##CAS REGISTRY NO=70182-88-6\n##MOLFORM=C5H5N5S\n##MP=> 300\n##SOURCE REFERENCE=RAS UV No. 22204\n##$NIST SQUIB=1985KON/421\n##$NIST SOURCE=TYUGLMTE\n##SPECTROMETER/DATA SYSTEM=Beckman-26\n##XUNITS=Wavelength (nm)\n##YUNITS=Logarithm epsilon\n##XFACTOR=1.0\n##YFACTOR=1.0\n##FIRSTX=216.906\n##LASTX=364.56\n##FIRSTY=4.443\n##MAXX=364.56\n##MINX=216.906\n##MAXY=4.443\n##MINY=3.728\n##NPOINTS=189\n##$REF AUTHOR=Konyukhov, V.N.; et al.\n##$REF JOURNAL=Khim. Geterosikl. Soedin.\n##$REF PAGE=421\n##$REF DATE=1985\n##XYPOINTS=(XY..XY)\n216.906,4.443\n217.115,4.439\n217.915,4.430\n218.715,4.420\n219.515,4.410\n220.315,4.400\n221.115,4.389\n221.915,4.377\n222.715,4.365\n223.515,4.351\n224.315,4.336\n225.115,4.319\n225.915,4.301\n226.715,4.280\n227.515,4.258\n228.315,4.233\n229.115,4.206\n229.915,4.176\n230.715,4.143\n231.515,4.107\n232.315,4.068\n232.858,4.038\n233.658,3.994\n234.458,3.952\n235.258,3.912\n236.058,3.875\n236.858,3.842\n237.658,3.812\n238.458,3.788\n239.258,3.768\n240.058,3.753\n240.858,3.744\n241.658,3.740\n242.458,3.741\n243.258,3.747\n244.058,3.757\n244.858,3.770\n245.658,3.784\n246.458,3.798\n247.216,3.807\n248.016,3.825\n248.816,3.842\n249.616,3.859\n250.416,3.876\n251.216,3.892\n252.016,3.909\n252.816,3.925\n253.616,3.942\n254.416,3.958\n255.216,3.974\n256.016,3.989\n256.816,4.005\n257.616,4.020\n258.416,4.035\n259.216,4.050\n260.016,4.064\n260.816,4.079\n261.616,4.093\n262.416,4.107\n263.216,4.120\n264.016,4.133\n264.816,4.146\n265.616,4.159\n266.416,4.171\n267.216,4.183\n268.016,4.195\n268.816,4.206\n269.616,4.217\n270.416,4.228\n271.216,4.238\n272.016,4.248\n272.816,4.257\n273.338,4.264\n274.138,4.273\n274.938,4.282\n275.738,4.290\n276.538,4.298\n277.338,4.306\n278.138,4.313\n278.938,4.320\n279.738,4.325\n280.538,4.329\n281.338,4.331\n282.138,4.331\n282.938,4.330\n283.738,4.326\n284.538,4.320\n285.338,4.312\n286.138,4.301\n286.938,4.288\n287.695,4.275\n288.495,4.250\n289.295,4.223\n290.095,4.195\n290.895,4.166\n291.695,4.136\n292.495,4.105\n293.295,4.074\n294.095,4.042\n294.895,4.007\n295.695,3.968\n296.495,3.924\n297.295,3.872\n297.756,3.839\n298.463,3.805\n299.062,3.780\n299.862,3.756\n300.662,3.740\n301.462,3.731\n302.262,3.728\n303.062,3.729\n303.862,3.733\n304.662,3.740\n305.462,3.748\n306.262,3.758\n307.062,3.768\n307.862,3.778\n308.662,3.789\n309.462,3.799\n310.262,3.810\n311.062,3.822\n311.624,3.833\n312.424,3.843\n313.224,3.854\n314.024,3.864\n314.824,3.875\n315.624,3.886\n316.424,3.896\n317.224,3.907\n318.024,3.917\n318.824,3.928\n319.624,3.938\n320.424,3.948\n321.224,3.958\n322.024,3.968\n322.824,3.977\n323.624,3.987\n324.424,3.996\n325.224,4.005\n326.024,4.013\n326.824,4.022\n327.624,4.030\n328.424,4.038\n329.224,4.046\n330.024,4.054\n330.824,4.061\n331.624,4.068\n332.424,4.075\n333.224,4.082\n334.024,4.088\n334.824,4.095\n335.624,4.101\n336.424,4.107\n337.224,4.113\n337.360,4.114\n338.160,4.120\n338.960,4.126\n339.760,4.132\n340.560,4.137\n341.360,4.141\n342.160,4.144\n342.960,4.147\n343.760,4.148\n344.560,4.149\n345.360,4.148\n346.160,4.146\n346.960,4.142\n347.760,4.138\n348.560,4.132\n349.360,4.124\n350.160,4.116\n350.960,4.106\n351.760,4.095\n352.560,4.083\n353.360,4.070\n354.160,4.056\n354.960,4.041\n355.760,4.025\n356.560,4.009\n357.360,3.992\n358.160,3.976\n358.960,3.959\n359.760,3.942\n360.560,3.925\n361.360,3.909\n362.160,3.894\n362.960,3.880\n363.760,3.867\n364.560,3.855\n##END=\n'