b'##TITLE=L-Asparagine\n##JCAMP-DX=4.24\n##DATA TYPE=UV/VIS SPECTRUM\n##ORIGIN=INSTITUTE OF ENERGY PROBLEMS OF CHEMICAL PHYSICS, RAS\n##OWNER=INEP CP RAS, NIST OSRD\nCollection (C) 2007 copyright by the U.S. Secretary of Commerce\non behalf of the United States of America. All rights reserved.\n##CAS REGISTRY NO=70-47-3\n##MOLFORM=C4H8N2O3\n##MP=234.5 dec\n##SOURCE REFERENCE=RAS UV No. 10583\n##$NIST SQUIB=1952SAI/WAL285\n##$NIST SOURCE=TYUGLMTE\n##SPECTROMETER/DATA SYSTEM=Beckman DU\n##XUNITS=Wavelength (nm)\n##YUNITS=Logarithm epsilon\n##XFACTOR=1.0\n##YFACTOR=1.0\n##FIRSTX=200.27\n##LASTX=229.45\n##FIRSTY=2.971\n##MAXX=229.45\n##MINX=200.27\n##MAXY=2.971\n##MINY=1.372\n##NPOINTS=91\n##$REF AUTHOR=Saidel, L.J.; Waldman, S.\n##$REF JOURNAL=J. Biol. Chem.\n##$REF VOLUME=197\n##$REF PAGE=285\n##$REF DATE=1952\n##XYPOINTS=(XY..XY)\n200.27,2.971\n200.42,2.952\n200.55,2.937\n200.68,2.922\n200.82,2.908\n200.95,2.891\n201.08,2.878\n201.23,2.865\n201.36,2.853\n201.50,2.842\n201.64,2.828\n201.77,2.817\n201.91,2.806\n202.05,2.793\n202.18,2.782\n202.32,2.770\n202.45,2.760\n202.59,2.751\n202.73,2.739\n202.86,2.728\n203.00,2.719\n203.14,2.708\n203.27,2.698\n203.41,2.686\n203.55,2.677\n203.68,2.664\n203.82,2.657\n203.95,2.645\n204.09,2.632\n204.23,2.620\n204.36,2.609\n204.51,2.596\n204.64,2.588\n204.77,2.579\n204.91,2.566\n205.05,2.556\n205.18,2.547\n205.32,2.539\n205.45,2.530\n205.59,2.521\n205.86,2.500\n206.01,2.490\n206.14,2.481\n206.27,2.473\n206.41,2.463\n206.68,2.445\n206.81,2.438\n206.94,2.427\n207.09,2.417\n207.23,2.410\n207.35,2.401\n207.50,2.394\n207.63,2.385\n207.82,2.376\n208.01,2.367\n208.17,2.358\n208.36,2.350\n208.59,2.339\n208.88,2.324\n209.14,2.310\n209.85,2.283\n210.77,2.247\n211.59,2.217\n212.00,2.202\n212.14,2.196\n212.30,2.189\n212.46,2.182\n213.62,2.129\n213.90,2.116\n214.45,2.093\n214.59,2.086\n214.73,2.079\n214.95,2.070\n215.66,2.048\n216.31,2.028\n216.70,2.016\n217.04,2.004\n217.47,1.988\n218.06,1.971\n218.98,1.938\n220.18,1.895\n221.68,1.837\n222.91,1.785\n223.59,1.756\n224.28,1.725\n224.95,1.691\n225.50,1.655\n226.18,1.615\n226.52,1.594\n228.31,1.469\n229.45,1.372\n##END=\n'