b'##TITLE=Ethanamine, N-ethyl-N-nitro-\n##JCAMP-DX=4.24\n##DATA TYPE=UV/VIS SPECTRUM\n##ORIGIN=INSTITUTE OF ENERGY PROBLEMS OF CHEMICAL PHYSICS, RAS\n##OWNER=INEP CP RAS, NIST OSRD\nCollection (C) 2007 copyright by the U.S. Secretary of Commerce\non behalf of the United States of America. All rights reserved.\n##CAS REGISTRY NO=7119-92-8\n##MOLFORM=C4H10N2O2\n##BP=93/ 16mm\n##SOURCE REFERENCE=RAS UV No. 22256\n##$NIST SQUIB=1978AND/240\n##$NIST SOURCE=TYUGLMTE\n##SPECTROMETER/DATA SYSTEM=SFD-2\n##XUNITS=Wavelength (nm)\n##YUNITS=Logarithm epsilon\n##XFACTOR=1.0\n##YFACTOR=1.0\n##FIRSTX=226.874\n##LASTX=302.874\n##FIRSTY=3.708\n##MAXX=302.874\n##MINX=226.874\n##MAXY=3.76\n##MINY=2.04\n##NPOINTS=39\n##$REF AUTHOR=Andreev, S.A.; et al.\n##$REF JOURNAL=Zhur. Organ. Khim.\n##$REF VOLUME=14\n##$REF PAGE=240\n##$REF DATE=1978\n##XYPOINTS=(XY..XY)\n226.874,3.708\n228.874,3.723\n230.874,3.736\n232.874,3.747\n234.874,3.755\n236.874,3.759\n238.874,3.760\n240.874,3.756\n242.874,3.747\n244.874,3.735\n246.874,3.717\n248.874,3.696\n250.874,3.671\n252.874,3.641\n254.874,3.608\n256.874,3.572\n258.874,3.532\n260.874,3.490\n262.874,3.444\n264.874,3.397\n266.874,3.346\n268.874,3.294\n270.874,3.239\n272.874,3.182\n274.874,3.123\n276.874,3.062\n278.874,2.998\n280.874,2.932\n282.874,2.863\n284.874,2.792\n286.874,2.718\n288.874,2.642\n290.874,2.562\n292.874,2.480\n294.874,2.395\n296.874,2.309\n298.874,2.220\n300.874,2.130\n302.874,2.040\n##END=\n'