b'##TITLE=2(1H)-Pyrimidinone, 4-amino-\n##JCAMP-DX=4.24\n##DATA TYPE=UV/VIS SPECTRUM\n##ORIGIN=INSTITUTE OF ENERGY PROBLEMS OF CHEMICAL PHYSICS, RAS\n##OWNER=INEP CP RAS, NIST OSRD\nCollection (C) 2007 copyright by the U.S. Secretary of Commerce\non behalf of the United States of America. All rights reserved.\n##CAS REGISTRY NO=71-30-7\n##MOLFORM=C4H5N3O\n##MP=320-325 (dec)\n##SOURCE REFERENCE=RAS UV No. 19713\n##$NIST SQUIB=1961LAN309\n##$NIST SOURCE=TYUGLMTE\n##SPECTROMETER/DATA SYSTEM=Beckman DU\n##XUNITS=Wavelength (nm)\n##YUNITS=Logarithm epsilon\n##XFACTOR=1.0\n##YFACTOR=1.0\n##FIRSTX=216.68\n##LASTX=306.64\n##FIRSTY=3.89\n##MAXX=306.64\n##MINX=216.68\n##MAXY=4.02\n##MINY=2.014\n##NPOINTS=88\n##$REF AUTHOR=Lang L.(ed.\n##$REF JOURNAL=Absorption spectra in the ultraviolet and visible region\n##$REF VOLUME=1\n##$REF PAGE=309\n##$REF DATE=1961\n##XYPOINTS=(XY..XY)\n216.68,3.890\n219.71,3.791\n220.72,3.757\n221.73,3.717\n222.74,3.672\n223.75,3.625\n224.76,3.567\n225.78,3.516\n226.79,3.458\n227.80,3.397\n228.81,3.335\n229.82,3.281\n230.83,3.219\n231.84,3.168\n232.85,3.121\n233.86,3.083\n234.87,3.046\n235.88,3.015\n236.89,2.995\n237.90,2.991\n238.92,3.002\n239.93,3.012\n240.94,3.036\n241.95,3.070\n242.96,3.104\n243.97,3.141\n244.98,3.185\n245.99,3.237\n247.00,3.284\n248.01,3.339\n249.02,3.390\n250.03,3.434\n251.05,3.485\n252.06,3.526\n253.07,3.567\n254.08,3.604\n255.09,3.645\n256.10,3.679\n257.11,3.710\n258.12,3.740\n259.13,3.771\n260.14,3.798\n261.15,3.829\n262.16,3.863\n263.17,3.883\n264.19,3.904\n265.20,3.917\n266.21,3.938\n267.22,3.955\n268.23,3.972\n269.24,3.985\n270.25,3.992\n271.26,4.006\n272.27,4.013\n273.28,4.020\n274.29,4.020\n275.30,4.020\n276.32,4.016\n277.33,4.009\n278.34,4.003\n279.35,3.985\n280.36,3.972\n281.37,3.951\n282.38,3.928\n283.39,3.900\n284.40,3.873\n285.41,3.839\n286.42,3.798\n287.43,3.757\n288.44,3.710\n289.46,3.659\n290.47,3.604\n291.48,3.539\n292.49,3.458\n293.50,3.376\n294.51,3.291\n295.52,3.175\n296.53,3.036\n297.54,2.889\n298.55,2.756\n299.56,2.624\n300.57,2.453\n301.59,2.297\n302.60,2.178\n303.61,2.110\n304.62,2.062\n305.63,2.025\n306.64,2.014\n##END=\n'