b'##TITLE=2-Pyridinol\n##JCAMP-DX=4.24\n##DATA TYPE=UV/VIS SPECTRUM\n##ORIGIN=INSTITUTE OF ENERGY PROBLEMS OF CHEMICAL PHYSICS, RAS\n##OWNER=INEP CP RAS, NIST OSRD\nCollection (C) 2007 copyright by the U.S. Secretary of Commerce\non behalf of the United States of America. All rights reserved.\n##CAS REGISTRY NO=72762-00-6\n##MOLFORM=C5H5NO\n##MP=107.8\n##SOURCE REFERENCE=RAS UV No. 12114\n##$NIST SQUIB=1955BLI/REZ1781\n##$NIST SOURCE=TYUGLMTE\n##SPECTROMETER/DATA SYSTEM=n.i.g.\n##XUNITS=Wavelength (nm)\n##YUNITS=Logarithm epsilon\n##XFACTOR=1.0\n##YFACTOR=1.0\n##FIRSTX=245.67\n##LASTX=338.81\n##FIRSTY=4.102\n##MAXX=338.81\n##MINX=245.67\n##MAXY=4.102\n##MINY=0.29\n##NPOINTS=266\n##$REF AUTHOR=Bliznyukov, V.I.; Reznikov, V.M.\n##$REF JOURNAL=Zhur. Obshchei Khim. (in Rus.)\n##$REF VOLUME=25\n##$REF PAGE=1781\n##$REF DATE=1955\n##XYPOINTS=(XY..XY)\n245.67,4.102\n246.00,4.102\n246.33,4.098\n246.66,4.094\n246.99,4.090\n247.31,4.090\n247.64,4.086\n247.97,4.082\n248.30,4.078\n248.63,4.078\n248.96,4.074\n249.29,4.070\n249.62,4.074\n250.28,4.070\n250.93,4.061\n251.59,4.045\n252.25,4.016\n252.91,4.000\n253.57,3.980\n253.90,3.951\n254.23,3.943\n254.55,3.934\n254.88,3.918\n255.21,3.906\n255.54,3.869\n255.87,3.865\n256.20,3.828\n256.53,3.775\n256.86,3.762\n257.19,3.664\n257.52,3.660\n257.85,3.607\n258.18,3.521\n258.50,3.459\n258.83,3.455\n259.16,3.255\n259.49,3.050\n259.82,2.907\n260.15,2.825\n260.48,2.743\n260.81,2.640\n261.14,2.542\n261.47,2.497\n261.80,2.472\n262.12,2.460\n262.45,2.448\n262.78,2.440\n263.11,2.436\n263.44,2.431\n263.77,2.431\n264.10,2.427\n264.43,2.423\n264.76,2.419\n265.09,2.419\n265.42,2.419\n265.75,2.419\n266.07,2.423\n266.40,2.448\n266.73,2.468\n267.06,2.489\n267.39,2.522\n267.72,2.542\n268.05,2.558\n268.38,2.583\n268.71,2.603\n269.04,2.648\n270.02,2.677\n271.01,2.694\n271.34,2.714\n271.67,2.747\n272.00,2.755\n272.33,2.767\n272.66,2.788\n272.99,2.796\n273.31,2.808\n273.64,2.861\n273.97,2.878\n274.30,2.882\n274.63,2.907\n274.96,2.939\n275.29,2.960\n275.62,2.968\n275.95,2.968\n276.28,3.001\n276.61,3.025\n276.94,3.042\n277.26,3.074\n277.59,3.087\n277.92,3.103\n278.25,3.128\n278.58,3.132\n278.91,3.169\n279.24,3.185\n279.57,3.201\n279.90,3.205\n280.23,3.222\n280.56,3.230\n280.88,3.242\n281.21,3.255\n281.54,3.279\n281.87,3.291\n282.20,3.308\n282.53,3.320\n282.86,3.332\n283.19,3.345\n283.52,3.357\n283.85,3.369\n284.18,3.382\n284.50,3.394\n284.83,3.398\n285.16,3.414\n285.49,3.427\n285.82,3.435\n286.15,3.447\n286.48,3.455\n286.81,3.476\n287.14,3.492\n287.47,3.504\n287.80,3.517\n288.13,3.525\n288.45,3.545\n288.78,3.554\n289.11,3.558\n289.44,3.570\n289.77,3.574\n290.10,3.578\n290.43,3.582\n290.76,3.595\n291.09,3.603\n291.42,3.615\n291.75,3.619\n292.07,3.631\n292.40,3.640\n292.73,3.648\n293.06,3.656\n293.39,3.668\n293.72,3.689\n294.05,3.697\n294.38,3.701\n294.71,3.705\n295.04,3.709\n295.37,3.717\n295.70,3.726\n296.02,3.734\n296.35,3.738\n296.68,3.746\n297.01,3.754\n297.34,3.758\n297.67,3.771\n298.00,3.775\n298.33,3.779\n298.66,3.783\n298.99,3.791\n299.32,3.795\n299.64,3.799\n299.97,3.799\n300.30,3.803\n300.63,3.808\n300.96,3.812\n301.29,3.812\n301.62,3.816\n301.95,3.816\n302.28,3.816\n302.61,3.816\n302.94,3.816\n303.26,3.816\n303.59,3.816\n303.92,3.816\n304.25,3.816\n304.58,3.812\n304.91,3.816\n305.24,3.812\n305.57,3.803\n305.90,3.803\n306.23,3.799\n306.56,3.799\n306.89,3.795\n307.21,3.791\n307.54,3.787\n307.87,3.783\n308.20,3.771\n308.53,3.762\n308.86,3.758\n309.19,3.754\n309.52,3.746\n309.85,3.742\n310.18,3.734\n310.51,3.726\n310.83,3.717\n311.16,3.709\n311.49,3.701\n311.82,3.697\n312.15,3.689\n312.48,3.681\n312.81,3.676\n313.14,3.672\n313.47,3.668\n313.80,3.660\n314.13,3.644\n314.45,3.631\n314.78,3.619\n315.11,3.611\n315.44,3.586\n315.77,3.578\n316.10,3.574\n316.43,3.554\n316.76,3.541\n317.09,3.521\n317.42,3.504\n317.75,3.492\n318.08,3.480\n318.40,3.468\n318.73,3.455\n319.06,3.443\n319.39,3.418\n319.72,3.398\n320.05,3.377\n320.38,3.365\n320.71,3.337\n321.04,3.320\n321.37,3.291\n321.70,3.271\n322.02,3.267\n322.35,3.238\n322.68,3.205\n323.01,3.115\n323.34,3.062\n323.67,3.021\n324.00,2.939\n324.33,2.857\n324.66,2.829\n324.99,2.775\n326.30,2.661\n326.63,2.657\n326.96,2.648\n327.62,2.558\n327.95,2.468\n328.28,2.444\n328.61,2.354\n328.94,2.280\n329.27,2.239\n329.59,2.198\n329.92,2.075\n330.25,2.034\n330.58,1.993\n330.91,1.907\n331.24,1.846\n331.57,1.829\n331.90,1.756\n332.23,1.686\n332.56,1.621\n332.89,1.584\n333.21,1.506\n333.54,1.416\n333.87,1.403\n334.20,1.305\n334.53,1.260\n334.86,1.211\n335.19,1.145\n335.52,1.068\n335.85,1.006\n336.18,0.969\n336.51,0.912\n336.84,0.801\n337.16,0.777\n338.81,0.290\n##END=\n'