b'##TITLE=6H-Purin-6-one, 2-amino-1,7-dihydro-\n##JCAMP-DX=4.24\n##DATA TYPE=UV/VIS SPECTRUM\n##ORIGIN=INSTITUTE OF ENERGY PROBLEMS OF CHEMICAL PHYSICS, RAS\n##OWNER=INEP CP RAS, NIST OSRD\nCollection (C) 2007 copyright by the U.S. Secretary of Commerce\non behalf of the United States of America. All rights reserved.\n##CAS REGISTRY NO=73-40-5\n##MOLFORM=C5H5N5O\n##MP=365 dec.\n##SOURCE REFERENCE=RAS UV No. 19875\n##$NIST SQUIB=1971JOHj10/2\n##$NIST SOURCE=TYUGLMTE\n##SPECTROMETER/DATA SYSTEM=Unicam SP 500\n##XUNITS=Wavelength (nm)\n##YUNITS=Logarithm epsilon\n##XFACTOR=1.0\n##YFACTOR=1.0\n##FIRSTX=188.08\n##LASTX=311.42\n##FIRSTY=4.223\n##MAXX=311.42\n##MINX=188.08\n##MAXY=4.326\n##MINY=1.803\n##NPOINTS=180\n##$REF AUTHOR=Johnson, E.A.\n##$REF JOURNAL=UV atlas of organic compounds\n##$REF VOLUME=5\n##$REF PAGE=J10/2\n##$REF DATE=1971\n##XYPOINTS=(XY..XY)\n188.08,4.223\n188.16,4.223\n188.24,4.223\n188.31,4.225\n188.39,4.225\n188.47,4.225\n188.54,4.225\n188.62,4.225\n188.70,4.228\n188.77,4.228\n188.85,4.228\n188.93,4.228\n189.00,4.228\n189.08,4.230\n189.39,4.234\n189.85,4.243\n190.32,4.249\n190.79,4.257\n191.26,4.266\n191.74,4.275\n192.21,4.281\n192.69,4.287\n193.17,4.296\n193.66,4.302\n194.14,4.307\n194.63,4.313\n195.12,4.317\n195.62,4.320\n196.11,4.324\n196.61,4.326\n197.11,4.326\n197.62,4.326\n198.12,4.326\n198.63,4.322\n199.14,4.320\n199.66,4.315\n200.17,4.305\n200.69,4.298\n201.22,4.290\n201.74,4.283\n202.27,4.272\n202.80,4.260\n203.33,4.247\n203.87,4.234\n204.41,4.223\n204.95,4.210\n205.49,4.193\n206.04,4.174\n206.59,4.159\n207.14,4.140\n207.70,4.118\n208.26,4.099\n208.82,4.082\n209.39,4.061\n209.96,4.046\n210.53,4.026\n211.10,4.007\n211.68,3.994\n212.26,3.977\n212.85,3.964\n213.43,3.949\n214.02,3.932\n214.62,3.915\n215.22,3.900\n215.82,3.881\n216.42,3.862\n217.03,3.838\n217.64,3.817\n218.25,3.793\n218.87,3.770\n219.49,3.746\n220.12,3.718\n220.75,3.695\n221.38,3.673\n222.01,3.656\n222.65,3.643\n223.29,3.635\n223.94,3.631\n224.59,3.628\n225.25,3.633\n225.90,3.637\n226.57,3.646\n227.23,3.656\n227.90,3.669\n228.58,3.684\n229.25,3.703\n229.93,3.718\n230.62,3.735\n231.31,3.755\n232.00,3.774\n232.70,3.795\n233.40,3.815\n234.11,3.834\n234.82,3.849\n235.54,3.868\n236.26,3.887\n236.98,3.907\n237.71,3.922\n238.44,3.939\n239.18,3.952\n239.92,3.964\n240.67,3.979\n241.42,3.990\n242.18,3.999\n242.94,4.003\n243.70,4.011\n244.47,4.014\n245.25,4.018\n246.03,4.018\n246.81,4.020\n247.60,4.018\n248.40,4.014\n249.20,4.009\n250.01,4.001\n250.82,3.992\n251.63,3.984\n252.45,3.971\n253.28,3.958\n254.11,3.945\n254.95,3.928\n255.79,3.915\n256.64,3.900\n257.50,3.887\n258.36,3.874\n259.22,3.866\n260.10,3.857\n260.97,3.849\n261.86,3.847\n262.75,3.845\n263.64,3.847\n264.55,3.849\n265.45,3.855\n266.37,3.859\n267.29,3.866\n268.22,3.872\n269.15,3.877\n270.09,3.885\n271.04,3.889\n271.99,3.894\n272.95,3.896\n273.92,3.898\n274.89,3.900\n275.87,3.898\n276.86,3.894\n277.85,3.887\n278.86,3.879\n279.86,3.868\n280.88,3.855\n281.91,3.834\n282.94,3.815\n283.98,3.793\n285.02,3.765\n286.08,3.731\n287.14,3.699\n288.21,3.658\n289.29,3.611\n290.37,3.558\n291.47,3.496\n292.57,3.425\n293.68,3.359\n294.80,3.290\n295.93,3.215\n297.07,3.143\n298.29,3.065\n299.40,2.991\n300.39,2.921\n301.44,2.840\n302.42,2.763\n303.41,2.679\n304.11,2.608\n304.64,2.556\n305.08,2.509\n306.03,2.419\n306.61,2.355\n307.25,2.289\n308.52,2.156\n309.23,2.071\n309.99,1.976\n310.51,1.906\n311.42,1.803\n##END=\n'