b'##TITLE=Bis(trifluoromethyl)thioketene\n##JCAMP-DX=4.24\n##DATA TYPE=UV/VIS SPECTRUM\n##ORIGIN=INSTITUTE OF ENERGY PROBLEMS OF CHEMICAL PHYSICS, RAS\n##OWNER=INEP CP RAS, NIST OSRD\nCollection (C) 2007 copyright by the U.S. Secretary of Commerce\non behalf of the United States of America. All rights reserved.\n##CAS REGISTRY NO=7445-60-5\n##MOLFORM=C4F6S\n##MP=54\n##BP=52\n##SOURCE REFERENCE=RAS UV No. 19963\n##$NIST SQUIB=1966RAAb13/3\n##$NIST SOURCE=TYUGLMTE\n##SPECTROMETER/DATA SYSTEM=Cary 14\n##XUNITS=Wavelength (nm)\n##YUNITS=Logarithm epsilon\n##XFACTOR=1.0\n##YFACTOR=1.0\n##FIRSTX=183.54\n##LASTX=285.88\n##FIRSTY=3.412\n##MAXX=285.88\n##MINX=183.54\n##MAXY=3.835\n##MINY=0.996\n##NPOINTS=106\n##$REF AUTHOR=Raash, M.S.\n##$REF JOURNAL=UV atlas of organic compounds\n##$REF VOLUME=1\n##$REF PAGE=B13/3\n##$REF DATE=1966\n##XYPOINTS=(XY..XY)\n183.54,3.412\n183.65,3.415\n183.75,3.419\n183.86,3.422\n183.97,3.425\n184.19,3.432\n184.85,3.460\n185.51,3.488\n186.18,3.513\n186.85,3.542\n187.52,3.566\n188.21,3.592\n188.89,3.613\n189.58,3.639\n190.28,3.663\n190.98,3.687\n191.69,3.708\n192.40,3.730\n193.12,3.749\n193.84,3.764\n194.57,3.782\n195.30,3.798\n196.04,3.812\n196.79,3.823\n197.54,3.830\n198.30,3.833\n199.06,3.835\n199.83,3.831\n200.60,3.827\n201.38,3.819\n202.17,3.804\n202.96,3.786\n203.76,3.756\n204.56,3.729\n205.37,3.697\n206.19,3.660\n207.02,3.615\n207.85,3.560\n208.69,3.501\n209.53,3.430\n210.38,3.350\n211.24,3.293\n212.10,3.224\n212.98,3.155\n213.86,3.075\n214.74,3.019\n215.64,2.943\n216.54,2.881\n217.45,2.812\n218.37,2.747\n219.29,2.698\n220.22,2.651\n221.16,2.601\n222.11,2.556\n223.07,2.510\n224.03,2.463\n225.01,2.426\n225.99,2.394\n226.98,2.365\n227.98,2.332\n228.99,2.293\n230.01,2.258\n231.03,2.222\n232.07,2.179\n233.11,2.128\n234.17,2.089\n235.23,2.046\n236.30,1.990\n237.39,1.943\n238.48,1.914\n239.58,1.887\n240.70,1.848\n241.82,1.806\n242.96,1.770\n244.10,1.731\n245.26,1.699\n246.42,1.662\n247.60,1.638\n248.79,1.614\n249.99,1.593\n251.21,1.569\n252.43,1.550\n253.67,1.530\n254.92,1.509\n256.18,1.482\n257.45,1.455\n258.74,1.437\n260.04,1.421\n261.35,1.402\n262.67,1.384\n264.01,1.368\n265.37,1.354\n266.73,1.334\n268.12,1.320\n269.51,1.309\n270.92,1.294\n272.35,1.280\n273.79,1.264\n275.24,1.243\n276.71,1.219\n278.20,1.185\n279.70,1.153\n281.22,1.113\n282.76,1.073\n284.31,1.034\n285.88,0.996\n##END=\n'