b'##TITLE=Methane, bromo-\n##JCAMP-DX=4.24\n##DATA TYPE=UV/VIS SPECTRUM\n##ORIGIN=INSTITUTE OF ENERGY PROBLEMS OF CHEMICAL PHYSICS, RAS\n##OWNER=INEP CP RAS, NIST OSRD\nCollection (C) 2007 copyright by the U.S. Secretary of Commerce\non behalf of the United States of America. All rights reserved.\n##CAS REGISTRY NO=74-83-9\n##MOLFORM=CH3Br\n##MP=- 93.7\n##BP=3.5\n##SOURCE REFERENCE=RAS UV No. 10156\n##$NIST SQUIB=1951DAV467\n##$NIST SOURCE=TYUGLMTE\n##SPECTROMETER/DATA SYSTEM=Beckman DU\n##XUNITS=Wavelength (nm)\n##YUNITS=Logarithm epsilon\n##XFACTOR=1.0\n##YFACTOR=1.0\n##FIRSTX=202.09\n##LASTX=262.39\n##FIRSTY=2.282\n##MAXX=262.39\n##MINX=202.09\n##MAXY=2.285\n##MINY=-0.7\n##NPOINTS=109\n##$REF AUTHOR=Davidson, N.\n##$REF JOURNAL=J. Am. Chem. Soc.\n##$REF VOLUME=73\n##$REF PAGE=467\n##$REF DATE=1951\n##XYPOINTS=(XY..XY)\n202.09,2.282\n202.24,2.282\n202.39,2.282\n202.54,2.282\n202.69,2.282\n202.84,2.282\n202.99,2.282\n203.13,2.282\n203.28,2.282\n203.43,2.282\n203.58,2.282\n203.73,2.282\n203.88,2.282\n204.33,2.282\n204.48,2.285\n205.07,2.276\n205.67,2.270\n206.27,2.267\n206.87,2.264\n207.46,2.261\n208.06,2.258\n208.66,2.252\n209.25,2.252\n209.85,2.240\n210.45,2.228\n211.04,2.219\n211.64,2.213\n212.24,2.204\n212.84,2.192\n213.43,2.179\n214.03,2.179\n214.63,2.155\n215.22,2.140\n215.82,2.125\n216.42,2.107\n217.01,2.086\n217.61,2.064\n218.21,2.055\n219.40,2.010\n220.00,1.983\n220.60,1.958\n221.19,1.934\n221.79,1.907\n222.39,1.877\n222.99,1.868\n224.18,1.798\n224.78,1.771\n225.37,1.743\n225.97,1.719\n226.57,1.692\n227.16,1.668\n227.76,1.659\n228.36,1.613\n228.96,1.577\n229.55,1.553\n230.15,1.519\n230.75,1.483\n231.34,1.453\n231.94,1.422\n232.54,1.410\n233.13,1.356\n233.73,1.319\n234.33,1.283\n234.93,1.253\n235.52,1.217\n236.12,1.180\n236.72,1.132\n237.31,1.095\n237.91,1.071\n238.51,1.029\n239.10,0.986\n239.70,0.956\n240.30,0.914\n240.90,0.871\n241.49,0.847\n242.09,0.823\n242.69,0.762\n243.28,0.717\n243.88,0.671\n244.48,0.635\n245.07,0.590\n245.67,0.547\n246.27,0.514\n247.46,0.423\n248.06,0.372\n248.66,0.332\n249.25,0.287\n249.85,0.238\n250.45,0.205\n251.04,0.154\n251.64,0.111\n252.24,0.063\n252.84,0.030\n253.43,-0.007\n254.03,-0.040\n254.63,-0.070\n255.22,-0.104\n255.82,-0.140\n256.42,-0.228\n257.01,-0.246\n257.61,-0.291\n258.21,-0.343\n258.81,-0.394\n259.40,-0.440\n260.00,-0.494\n260.60,-0.546\n261.19,-0.594\n261.79,-0.661\n262.39,-0.700\n##END=\n'