b'##TITLE=Ethylene\n##JCAMP-DX=4.24\n##DATA TYPE=UV/VIS SPECTRUM\n##ORIGIN=INSTITUTE OF ENERGY PROBLEMS OF CHEMICAL PHYSICS, RAS\n##OWNER=INEP CP RAS, NIST OSRD\nCollection (C) 2007 copyright by the U.S. Secretary of Commerce\non behalf of the United States of America. All rights reserved.\n##CAS REGISTRY NO=74-85-1\n##MOLFORM=C2H4\n##MP=- 169\n##BP=- 103.7\n##SOURCE REFERENCE=RAS UV No. 11951\n##$NIST SQUIB=1949PLA/PRI466\n##$NIST SOURCE=TYUGLMTE\n##SPECTROMETER/DATA SYSTEM=n.i.g.\n##XUNITS=Wavelength (nm)\n##YUNITS=Logarithm epsilon\n##XFACTOR=1.0\n##YFACTOR=1.0\n##FIRSTX=142.01\n##LASTX=174.72\n##FIRSTY=2.281\n##MAXX=174.72\n##MINX=142.01\n##MAXY=4.188\n##MINY=2.281\n##NPOINTS=172\n##$REF AUTHOR=Platt, J.R.; Price, W.C.\n##$REF JOURNAL=J. Chem. Phys.\n##$REF VOLUME=17\n##$REF PAGE=466\n##$REF DATE=1949\n##XYPOINTS=(XY..XY)\n142.01,2.281\n142.11,2.300\n142.21,2.320\n142.35,2.349\n142.43,2.367\n142.52,2.386\n142.62,2.410\n142.72,2.428\n142.85,2.453\n142.96,2.476\n144.01,2.698\n144.33,2.752\n144.59,2.801\n145.59,2.999\n146.29,3.101\n146.86,3.194\n147.07,3.230\n147.28,3.262\n147.46,3.288\n147.70,3.321\n147.96,3.353\n148.23,3.388\n148.55,3.425\n148.72,3.447\n148.95,3.474\n149.12,3.495\n149.38,3.523\n149.64,3.551\n149.83,3.571\n150.03,3.594\n150.26,3.617\n150.45,3.634\n150.75,3.661\n151.00,3.685\n151.27,3.707\n151.50,3.726\n151.70,3.742\n151.91,3.757\n152.14,3.772\n152.30,3.783\n152.57,3.798\n152.77,3.810\n152.98,3.823\n153.19,3.836\n153.40,3.848\n153.61,3.862\n153.82,3.876\n154.01,3.889\n154.24,3.904\n154.44,3.916\n154.66,3.927\n154.88,3.940\n155.09,3.952\n155.27,3.963\n155.51,3.975\n155.71,3.985\n155.90,3.995\n156.08,4.005\n156.30,4.017\n156.57,4.030\n156.78,4.038\n156.97,4.047\n157.18,4.057\n157.38,4.068\n157.57,4.079\n157.79,4.089\n158.01,4.099\n158.26,4.112\n158.47,4.122\n158.68,4.133\n158.89,4.142\n159.10,4.151\n159.31,4.157\n159.53,4.163\n159.70,4.168\n159.91,4.173\n160.16,4.179\n160.37,4.182\n160.58,4.184\n160.79,4.186\n161.00,4.188\n161.21,4.188\n161.42,4.188\n161.64,4.188\n161.85,4.188\n162.06,4.188\n162.27,4.186\n162.48,4.184\n162.67,4.182\n162.90,4.178\n163.11,4.174\n163.32,4.168\n163.54,4.159\n163.75,4.150\n163.96,4.141\n164.17,4.131\n164.38,4.120\n164.58,4.111\n164.80,4.101\n165.01,4.089\n165.22,4.075\n165.47,4.059\n165.69,4.045\n165.87,4.033\n166.07,4.022\n166.28,4.008\n166.49,3.992\n166.70,3.974\n166.92,3.956\n167.14,3.937\n167.34,3.920\n167.55,3.902\n167.78,3.879\n167.97,3.854\n168.23,3.822\n168.43,3.795\n168.60,3.770\n168.82,3.728\n169.02,3.683\n169.20,3.638\n169.40,3.589\n169.58,3.534\n169.86,3.462\n170.08,3.385\n170.33,3.302\n170.51,3.251\n170.69,3.186\n170.87,3.114\n171.01,3.057\n171.16,2.959\n171.34,2.847\n171.46,2.768\n171.52,2.726\n171.59,2.677\n171.72,2.609\n171.91,2.521\n172.02,2.550\n172.07,2.585\n172.16,2.661\n172.21,2.721\n172.26,2.784\n172.36,2.919\n172.46,3.065\n172.51,3.170\n172.56,3.248\n172.62,3.325\n172.67,3.381\n172.68,3.406\n172.71,3.434\n172.74,3.457\n172.78,3.477\n172.82,3.488\n172.87,3.477\n172.90,3.462\n172.95,3.439\n172.99,3.398\n173.09,3.326\n173.22,3.233\n173.41,3.044\n173.56,2.903\n173.62,2.907\n173.68,2.924\n173.72,2.950\n173.77,2.982\n173.98,3.391\n174.09,3.639\n174.20,3.732\n174.29,3.742\n174.41,3.745\n174.53,3.739\n174.62,3.732\n174.72,3.645\n##END=\n'