b'##TITLE=Methylamine\n##JCAMP-DX=4.24\n##DATA TYPE=UV/VIS SPECTRUM\n##ORIGIN=INSTITUTE OF ENERGY PROBLEMS OF CHEMICAL PHYSICS, RAS\n##OWNER=INEP CP RAS, NIST OSRD\nCollection (C) 2007 copyright by the U.S. Secretary of Commerce\non behalf of the United States of America. All rights reserved.\n##CAS REGISTRY NO=74-89-5\n##MOLFORM=CH5N\n##MP=-93.4\n##BP=-6.3\n##SOURCE REFERENCE=RAS UV No. 2772\n##$NIST SQUIB=1953TAN/COF311-318\n##$NIST SOURCE=TSGMTE\n##SPECTROMETER/DATA SYSTEM=n.i.g.\n##PRESSURE=0.01-1.8 mm Hg\n##XUNITS=Wavelength (nm)\n##YUNITS=Logarithm epsilon\n##XFACTOR=1.000000\n##YFACTOR=1.000000\n##FIRSTX=236.1566\n##LASTX=159.3957\n##FIRSTY=2.1277\n##MAXX=236.157\n##MINX=159.396\n##MAXY=3.41082\n##MINY=2.08403\n##NPOINTS=1000\n##$REF AUTHOR=Tannenbaum, E.; Coffin, E.M.; Harrison, A.J.\n##$REF TITLE=The far ultraviolet absorption spectra of simple alkyl amines\n##$REF JOURNAL=J. Chem. Phys.\n##$REF VOLUME=21\n##$REF NUMBER=2\n##$REF PAGE=311-318\n##$REF DATE=1953\n##XYPOINTS=(XY..XY)\n236.1566,2.127697\n235.9555,2.220987\n235.7854,2.277454\n235.7854,2.277454\n235.7133,2.277212\n235.6362,2.276954\n235.5566,2.276687\n235.5566,2.276687\n235.4344,2.246374\n235.3124,2.213292\n235.1906,2.176407\n235.1906,2.176407\n234.7863,2.121664\n234.5795,2.096478\n234.3921,2.084033\n234.3921,2.084033\n234.1710,2.154686\n233.9478,2.215917\n233.7199,2.270423\n233.7199,2.270423\n233.6154,2.270061\n233.5060,2.269681\n233.3941,2.269292\n233.3941,2.269292\n233.0566,2.232222\n232.8640,2.217457\n232.6505,2.214568\n232.6505,2.214568\n232.5193,2.234031\n232.4453,2.251514\n232.3649,2.281153\n232.3649,2.281153\n232.3475,2.327954\n232.3277,2.370536\n232.3028,2.409929\n231.8408,2.453145\n231.7493,2.423832\n231.6629,2.392410\n231.5790,2.358543\n231.5790,2.358543\n231.4085,2.337343\n231.2430,2.315851\n231.0802,2.293659\n230.9035,2.300398\n230.7327,2.326880\n230.6331,2.349893\n230.5190,2.387857\n230.5190,2.387857\n230.4319,2.453754\n230.3448,2.511205\n230.2577,2.562379\n230.2577,2.562379\n230.1379,2.561127\n230.0183,2.559650\n229.8989,2.557722\n229.8989,2.557722\n229.8052,2.521616\n229.7068,2.481691\n229.6062,2.437421\n229.6062,2.437421\n229.5320,2.426445\n229.4579,2.414875\n229.3839,2.402350\n229.3839,2.402350\n229.2645,2.403522\n229.1452,2.405008\n229.0260,2.407123\n229.0260,2.407123\n228.9234,2.436336\n228.8351,2.478465\n228.6854,2.559486\n228.6854,2.559486\n228.5553,2.561538\n228.4229,2.564016\n228.2859,2.566691\n228.2859,2.566691\n228.2149,2.547394\n228.1439,2.526961\n228.0731,2.505014\n228.0731,2.505014\n227.9127,2.502058\n227.7501,2.498565\n227.5832,2.494775\n227.5832,2.494775\n227.4232,2.583761\n227.2587,2.657927\n227.0921,2.721405\n227.0921,2.721405\n227.0358,2.721332\n226.9749,2.721252\n226.9117,2.721170\n226.9117,2.721170\n226.9105,2.724807\n226.9093,2.728716\n226.9081,2.732738\n226.8269,2.721060\n226.7044,2.679682\n226.5867,2.634137\n226.4714,2.583676\n226.4714,2.583676\n226.4009,2.571781\n226.3339,2.565301\n226.2130,2.558844\n226.0348,2.554473\n225.9176,2.561283\n225.8006,2.567987\n225.6837,2.574590\n225.6837,2.574590\n225.5392,2.640837\n225.3902,2.698621\n225.2390,2.749752\n225.2390,2.749752\n225.1419,2.749631\n225.0403,2.749506\n224.9364,2.749377\n224.9364,2.749377\n224.8926,2.721765\n224.8465,2.691946\n224.7959,2.659744\n224.7959,2.659744\n224.7549,2.655659\n224.7117,2.651353\n224.6640,2.646631\n224.6640,2.646631\n224.5261,2.645563\n224.3838,2.644302\n224.2395,2.642667\n224.2395,2.642667\n224.0762,2.657399\n223.9708,2.670703\n223.8330,2.693479\n223.8330,2.693479\n223.6975,2.737174\n223.6025,2.758744\n223.4665,2.778844\n223.4665,2.778844\n223.3708,2.779358\n223.2705,2.779999\n223.1679,2.780904\n223.1679,2.780904\n222.9738,2.723946\n222.8829,2.698760\n222.8170,2.689061\n222.8170,2.689061\n222.7151,2.688142\n222.6132,2.687055\n222.5116,2.685632\n222.5116,2.685632\n222.4056,2.711819\n222.2742,2.753604\n222.0047,2.836009\n222.0047,2.836009\n221.9008,2.840351\n221.8003,2.841876\n221.6173,2.841919\n221.6173,2.841919\n221.4819,2.797798\n221.3466,2.748538\n221.2116,2.692640\n221.2116,2.692640\n221.0841,2.684075\n220.9754,2.680783\n220.7924,2.680058\n220.7924,2.680058\n220.7403,2.686033\n220.6858,2.692087\n220.6269,2.698375\n220.6269,2.698375\n220.5746,2.739239\n220.5201,2.776719\n220.4610,2.811464\n220.4610,2.811464\n220.4096,2.814364\n220.3558,2.817489\n220.2976,2.820708\n220.2976,2.820708\n220.2175,2.820051\n220.1353,2.819268\n220.0488,2.818233\n220.0488,2.818233\n219.9707,2.812593\n219.8904,2.806876\n219.8058,2.801078\n219.8058,2.801078\n219.7209,2.769344\n219.6618,2.752458\n219.5778,2.737226\n219.5778,2.737226\n219.4689,2.736217\n219.3602,2.734909\n219.2516,2.733448\n219.2516,2.733448\n219.1705,2.738696\n219.0872,2.744024\n218.9994,2.749570\n218.9994,2.749570\n218.9506,2.799746\n218.8973,2.827299\n218.7940,2.857994\n218.7940,2.857994\n218.7408,2.860598\n218.6831,2.863404\n218.6232,2.866299\n218.6232,2.866299\n218.5614,2.865724\n218.4954,2.865034\n218.4273,2.864121\n218.4273,2.864121\n218.3118,2.843693\n218.2370,2.818766\n218.1386,2.764341\n218.1386,2.764341\n217.9622,2.763467\n217.7840,2.762450\n217.6018,2.761145\n217.6018,2.761145\n217.5125,2.795090\n217.4210,2.826812\n217.3252,2.856482\n217.3252,2.856482\n217.2073,2.862363\n217.1233,2.864468\n217.0014,2.864656\n217.0014,2.864656\n216.9536,2.861973\n216.9037,2.859048\n216.8496,2.855986\n216.8496,2.855986\n216.7690,2.830895\n216.6841,2.804132\n216.5972,2.775339\n216.5972,2.775339\n216.5470,2.772196\n216.4926,2.768889\n216.4362,2.765276\n216.4362,2.765276\n216.2914,2.764280\n216.1449,2.763000\n215.9943,2.761572\n215.9943,2.761572\n215.9155,2.766493\n215.8347,2.771492\n215.7496,2.776700\n215.7496,2.776700\n215.6472,2.831828\n215.5899,2.852608\n215.5285,2.861143\n215.5285,2.861143\n215.4236,2.860514\n215.3187,2.859774\n215.2141,2.858808\n215.2141,2.858808\n215.1470,2.832852\n215.0778,2.805242\n215.0044,2.775752\n215.0044,2.775752\n214.9114,2.768886\n214.8184,2.761911\n214.7255,2.754821\n214.7255,2.754821\n214.6492,2.754718\n214.5709,2.754613\n214.4884,2.754502\n214.4884,2.754502\n214.4270,2.760319\n214.3613,2.766331\n214.2936,2.772394\n214.2936,2.772394\n214.1605,2.816584\n214.0661,2.854820\n213.9427,2.883860\n213.9427,2.883860\n213.8390,2.883263\n213.7332,2.882558\n213.6235,2.881635\n213.6235,2.881635\n213.5595,2.852332\n213.4956,2.820665\n213.4318,2.786373\n213.4318,2.786373\n213.3092,2.782861\n213.1882,2.781463\n212.9652,2.780999\n212.9652,2.780999\n212.8226,2.787994\n212.6781,2.795005\n212.5296,2.802154\n212.5296,2.802154\n212.5270,2.810093\n212.5244,2.817890\n212.5218,2.825549\n212.5218,2.825549\n212.3553,2.828000\n212.1561,2.830399\n211.7873,2.831163\n211.7873,2.831163\n211.7439,2.814720\n211.6965,2.797495\n211.6472,2.779289\n211.6472,2.779289\n211.4530,2.781087\n211.3447,2.784052\n211.2292,2.790660\n211.2292,2.790660\n211.1336,2.809772\n211.0610,2.820489\n210.9493,2.832329\n210.9493,2.832329\n210.8480,2.832764\n210.7448,2.833315\n210.6375,2.834097\n210.6375,2.834097\n210.6090,2.826171\n210.5634,2.820889\n210.4616,2.813742\n210.4616,2.813742\n210.4405,2.790061\n210.4131,2.779050\n210.3561,2.772099\n210.3561,2.772099\n210.2193,2.771278\n210.0808,2.770316\n209.9384,2.769071\n209.9384,2.769071\n209.8510,2.787283\n209.7615,2.805012\n209.6680,2.822163\n209.6680,2.822163\n209.6032,2.826437\n209.5384,2.830670\n209.4737,2.834862\n209.4737,2.834862\n209.3630,2.833511\n209.2486,2.831913\n209.1323,2.830187\n209.1323,2.830187\n209.1022,2.812046\n209.0722,2.792983\n209.0423,2.772773\n209.0423,2.772773\n208.9072,2.771953\n208.7704,2.770992\n208.6299,2.769749\n208.6299,2.769749\n208.4794,2.789206\n208.3316,2.812452\n208.2005,2.826913\n208.2005,2.826913\n208.1288,2.826826\n208.0551,2.826737\n207.9776,2.826643\n207.9776,2.826643\n207.8311,2.796458\n207.7411,2.781654\n207.6300,2.770833\n207.6300,2.770833\n207.4705,2.769973\n207.3113,2.768974\n207.1524,2.767697\n207.1524,2.767697\n206.9644,2.775354\n206.8574,2.781789\n206.7393,2.792431\n206.7393,2.792431\n206.6426,2.792302\n206.5459,2.792173\n206.4493,2.792044\n206.4493,2.792044\n206.3549,2.784650\n206.2607,2.776858\n206.1667,2.768786\n205.7314,2.763188\n205.5930,2.768409\n205.4589,2.773301\n205.3268,2.778007\n205.3268,2.778007\n205.2672,2.787240\n205.1911,2.793542\n205.0335,2.802325\n205.0335,2.802325\n204.9846,2.800539\n204.9396,2.798752\n204.8966,2.796960\n204.8966,2.796960\n204.8250,2.784542\n204.7572,2.771900\n204.6914,2.759163\n204.1472,2.765896\n204.0156,2.776141\n203.8843,2.786018\n203.7531,2.795416\n203.7531,2.795416\n203.5057,2.780103\n203.2356,2.759310\n202.9179,2.735024\n202.9179,2.735024\n202.7990,2.736813\n202.6823,2.738451\n202.5695,2.739794\n202.5695,2.739794\n202.5287,2.743654\n202.4918,2.747342\n202.4568,2.750715\n202.4568,2.750715\n202.3977,2.750625\n202.3387,2.750534\n202.2797,2.750444\n202.2797,2.750444\n202.1813,2.743648\n202.1111,2.736345\n202.0091,2.722033\n202.0091,2.722033\n201.8507,2.718084\n201.7159,2.717861\n201.4894,2.721179\n201.4894,2.721179\n201.4381,2.727059\n201.3887,2.732565\n201.3432,2.737860\n201.3432,2.737860\n201.2506,2.740826\n201.1582,2.743480\n201.0659,2.745973\n201.0659,2.745973\n200.9600,2.735646\n200.8625,2.728863\n200.6900,2.719853\n200.6900,2.719853\n200.0802,2.720012\n199.4779,2.719869\n198.8810,2.719576\n198.8810,2.719576\n198.7893,2.728307\n198.6978,2.736719\n198.6064,2.744681\n198.6064,2.744681\n198.5357,2.744567\n198.4687,2.744459\n198.4035,2.744354\n198.4035,2.744354\n198.2478,2.728131\n198.0959,2.711441\n197.9459,2.694413\n197.8733,2.694281\n197.7738,2.694888\n197.6786,2.700193\n197.5065,2.714423\n197.5065,2.714423\n197.4620,2.722878\n197.4138,2.731466\n197.3639,2.740030\n197.3639,2.740030\n197.2757,2.739885\n197.1876,2.739740\n197.0996,2.739594\n197.0996,2.739594\n197.0064,2.726485\n196.9116,2.712652\n196.8134,2.698196\n196.8134,2.698196\n196.6933,2.698919\n196.5715,2.699960\n196.4464,2.701152\n196.4464,2.701152\n196.3555,2.716602\n196.2647,2.731522\n196.1740,2.745946\n196.1740,2.745946\n196.0602,2.749126\n195.8984,2.748189\n195.5505,2.742296\n195.5505,2.742296\n195.5080,2.745523\n195.4620,2.748864\n195.4142,2.752462\n195.4142,2.752462\n195.3512,2.751693\n195.2865,2.750777\n195.2184,2.749565\n195.2184,2.749565\n195.1708,2.742318\n195.1196,2.734942\n195.0668,2.727435\n195.0668,2.727435\n195.0038,2.727326\n194.9392,2.727214\n194.8711,2.727095\n194.8711,2.727095\n194.8071,2.731723\n194.7415,2.736299\n194.6725,2.740821\n194.6725,2.740821\n194.3999,2.740946\n194.1871,2.739411\n193.9571,2.739607\n193.9571,2.739607\n193.8618,2.748151\n193.7649,2.756811\n193.6646,2.765433\n193.6646,2.765433\n193.5905,2.785408\n193.5380,2.794940\n193.4619,2.802711\n193.4619,2.802711\n193.3999,2.803212\n193.3361,2.803836\n193.2688,2.804707\n193.2688,2.804707\n193.1766,2.796912\n193.1290,2.788650\n193.0850,2.772537\n193.0850,2.772537\n192.9925,2.773025\n192.8983,2.773645\n192.8007,2.774530\n192.8007,2.774530\n192.6113,2.805564\n192.5168,2.818055\n192.4360,2.824090\n192.4360,2.824090\n192.3747,2.824002\n192.3118,2.823913\n192.2455,2.823818\n192.2455,2.823818\n192.2082,2.819934\n192.1693,2.816014\n192.1270,2.812052\n192.1270,2.812052\n192.0868,2.811993\n192.0431,2.811929\n191.9979,2.811862\n191.9979,2.811862\n191.9123,2.819506\n191.8268,2.827018\n191.7413,2.834403\n191.7413,2.834403\n191.6253,2.832404\n191.5516,2.829382\n191.4572,2.822684\n191.4572,2.822684\n191.3664,2.822552\n191.2740,2.822418\n191.1783,2.822280\n191.1783,2.822280\n191.0821,2.832406\n191.0231,2.840960\n190.9508,2.855112\n190.9508,2.855112\n190.7555,2.854848\n190.5590,2.854582\n190.3595,2.854311\n190.3595,2.854311\n190.1539,2.876687\n190.0450,2.891301\n189.9395,2.910825\n189.9395,2.910825\n189.8455,2.913149\n189.7818,2.913533\n189.6941,2.912311\n189.6941,2.912311\n189.6272,2.906282\n189.5571,2.899961\n189.4855,2.893441\n189.4855,2.893441\n189.4033,2.895191\n189.3196,2.896931\n189.2326,2.898660\n189.2326,2.898660\n189.1664,2.907470\n189.1328,2.916535\n189.1031,2.933298\n189.1031,2.933298\n189.0508,2.935474\n188.9984,2.937826\n188.9461,2.940257\n188.9461,2.940257\n188.8789,2.936820\n188.8086,2.933257\n188.7368,2.929473\n188.7368,2.929473\n188.6777,2.929847\n188.6170,2.930313\n188.5530,2.930964\n188.5530,2.930964\n188.5210,2.938521\n188.4891,2.945950\n188.4572,2.953253\n188.4572,2.953253\n188.3767,2.953583\n188.2961,2.954002\n188.2156,2.954600\n188.2156,2.954600\n188.1307,2.934837\n188.0703,2.923689\n187.9825,2.912017\n187.9825,2.912017\n187.8857,2.911899\n187.7859,2.911777\n187.6846,2.911653\n187.6846,2.911653\n187.6441,2.917788\n187.6005,2.923835\n187.5552,2.929797\n187.5552,2.929797\n187.4964,2.953113\n187.4375,2.975413\n187.3786,2.996704\n187.3786,2.996704\n187.2295,2.995345\n187.1610,2.993655\n187.1139,2.990168\n187.1139,2.990168\n187.1081,2.986058\n187.1006,2.981907\n187.0899,2.977712\n187.0899,2.977712\n187.0524,2.975743\n187.0118,2.973676\n186.9697,2.971425\n186.9697,2.971425\n186.8830,2.971733\n186.7946,2.972126\n186.7032,2.972686\n186.7032,2.972686\n186.6055,2.980613\n186.5083,2.991781\n186.3283,3.014998\n186.3283,3.014998\n186.2124,3.035203\n186.0950,3.054650\n185.9745,3.073329\n185.9745,3.073329\n185.5950,3.073899\n185.4518,3.071876\n185.2097,3.069895\n185.2097,3.069895\n185.1468,3.072920\n184.9510,3.080057\n184.8730,3.081196\n184.7950,3.082333\n184.7950,3.082333\n184.7202,3.076828\n184.6455,3.071252\n184.5708,3.065604\n184.5708,3.065604\n184.5035,3.063876\n184.4199,3.063802\n184.2486,3.065317\n184.2486,3.065317\n184.1860,3.069212\n184.1267,3.072938\n184.0689,3.076566\n184.0689,3.076566\n183.8759,3.115939\n183.6850,3.151982\n183.4975,3.185158\n183.4975,3.185158\n183.4491,3.185914\n183.4041,3.185884\n183.3243,3.185039\n183.3243,3.185039\n183.2947,3.180020\n183.2681,3.174998\n183.2430,3.170028\n183.2430,3.170028\n183.1260,3.169526\n183.0106,3.169134\n182.8984,3.168799\n182.8984,3.168799\n182.8659,3.177548\n182.8334,3.186123\n182.8009,3.194533\n182.8009,3.194533\n182.7579,3.196236\n182.7184,3.199671\n182.6486,3.207683\n182.6486,3.207683\n182.5616,3.207242\n182.4777,3.206904\n182.3953,3.206616\n182.3953,3.206616\n182.3335,3.195839\n182.2733,3.184789\n182.2161,3.173454\n182.2161,3.173454\n182.1086,3.173792\n182.0042,3.174024\n181.9016,3.174203\n181.9016,3.174203\n181.7828,3.179843\n181.6658,3.185307\n181.5520,3.190653\n181.5520,3.190653\n181.5093,3.197521\n181.4696,3.204183\n181.4315,3.210696\n181.4315,3.210696\n181.3833,3.211937\n181.3352,3.213076\n181.2871,3.214163\n181.2871,3.214163\n181.2432,3.220015\n181.2008,3.225694\n181.1615,3.231255\n181.1615,3.231255\n181.0944,3.230849\n181.0288,3.230539\n180.9662,3.230278\n180.9662,3.230278\n180.9204,3.228115\n180.8745,3.225989\n180.8286,3.223949\n180.8286,3.223949\n180.7702,3.223542\n180.7148,3.223233\n180.6609,3.222973\n180.6609,3.222973\n180.6013,3.224821\n180.5447,3.226568\n180.4897,3.228261\n180.4897,3.228261\n180.4383,3.235669\n180.3885,3.242907\n180.3417,3.249938\n180.3417,3.249938\n180.2996,3.253160\n180.2627,3.264291\n180.1992,3.291678\n180.1992,3.291678\n180.1259,3.291321\n180.0526,3.291047\n179.9793,3.290813\n179.9793,3.290813\n179.9178,3.280280\n179.8472,3.263407\n179.7859,3.252043\n179.7859,3.252043\n179.7285,3.251195\n179.6741,3.250346\n179.6213,3.249497\n179.6213,3.249497\n179.5000,3.251303\n179.4335,3.253001\n179.3648,3.256034\n179.3648,3.256034\n179.2458,3.255962\n179.1285,3.255890\n179.0143,3.255821\n179.0143,3.255821\n178.9561,3.256933\n178.9010,3.257955\n178.8474,3.258931\n178.8474,3.258931\n178.7854,3.265830\n178.7265,3.272581\n178.6692,3.279144\n178.6692,3.279144\n178.5784,3.280461\n178.4695,3.282858\n178.2494,3.288347\n178.2494,3.288347\n178.2187,3.294815\n178.1880,3.301149\n178.1803,3.345656\n178.1803,3.345656\n178.1573,3.307311\n178.1573,3.307311\n178.1490,3.338768\n178.1430,3.328991\n178.1184,3.351961\n178.0594,3.358142\n178.0019,3.364167\n178.0019,3.364167\n177.9301,3.364132\n177.8585,3.364098\n177.7868,3.364063\n177.7868,3.364063\n177.7015,3.351970\n177.6317,3.338281\n177.5505,3.325897\n177.5505,3.325897\n177.4594,3.326141\n177.3685,3.326309\n177.2777,3.326438\n177.2777,3.326438\n177.1779,3.334091\n177.0952,3.343783\n177.0117,3.352547\n177.0117,3.352547\n176.9494,3.352241\n176.8898,3.352008\n176.8318,3.351811\n176.8318,3.351811\n176.7294,3.343121\n176.6286,3.334291\n176.5306,3.325355\n176.5306,3.325355\n176.4468,3.324343\n176.3640,3.323941\n176.2114,3.323808\n176.2114,3.323808\n176.1468,3.324971\n176.0837,3.326094\n176.0236,3.327139\n176.0236,3.327139\n175.9008,3.337663\n175.7783,3.347865\n175.6559,3.357797\n175.6559,3.357797\n175.6171,3.358891\n175.5798,3.359983\n175.5453,3.361074\n175.5453,3.361074\n175.4832,3.359665\n175.4225,3.358323\n175.3646,3.357013\n175.3646,3.357013\n175.3318,3.350734\n175.3004,3.344401\n175.2717,3.338049\n175.2717,3.338049\n175.1912,3.338290\n175.1135,3.338459\n175.0374,3.338592\n175.0374,3.338592\n175.0180,3.339573\n175.0000,3.340516\n174.9848,3.341385\n174.9848,3.341385\n174.8440,3.376771\n174.7702,3.400279\n174.7196,3.410816\n174.7196,3.410816\n174.6400,3.410294\n174.5788,3.409497\n174.4837,3.407738\n174.4837,3.407738\n174.4347,3.401423\n174.3884,3.395017\n174.3436,3.388515\n174.3436,3.388515\n174.3087,3.387612\n174.2765,3.386742\n174.2457,3.385938\n174.2457,3.385938\n174.2313,3.375030\n174.1920,3.365501\n174.0941,3.348954\n174.0941,3.348954\n174.0580,3.347518\n174.0232,3.346151\n173.9912,3.344817\n173.9912,3.344817\n173.8855,3.344761\n173.7813,3.344706\n173.6800,3.344653\n173.6800,3.344653\n173.6110,3.345594\n173.5420,3.346498\n173.4732,3.347326\n173.4732,3.347326\n173.4195,3.347020\n173.3685,3.346787\n173.3189,3.346592\n173.3189,3.346592\n173.2408,3.343232\n173.1702,3.339075\n173.0466,3.330461\n173.0466,3.330461\n172.9793,3.329745\n172.9120,3.329028\n172.8448,3.328309\n172.8448,3.328309\n172.8006,3.329980\n172.7563,3.331607\n172.7122,3.333152\n172.7122,3.333152\n172.6378,3.342403\n172.5635,3.351388\n172.4893,3.360157\n172.4893,3.360157\n172.4355,3.360762\n172.3845,3.361368\n172.3348,3.361974\n172.3348,3.361974\n172.3003,3.361488\n172.2685,3.361039\n172.2380,3.360660\n172.2380,3.360660\n172.1648,3.352845\n172.0929,3.344962\n172.0238,3.336971\n172.0238,3.336971\n171.9465,3.336928\n171.8719,3.336887\n171.7987,3.336847\n171.7987,3.336847\n171.7195,3.341931\n171.6709,3.345954\n171.6110,3.352343\n171.6110,3.352343\n171.5679,3.353281\n171.5248,3.354181\n171.4817,3.355008\n171.4817,3.355008\n171.4460,3.354514\n171.4116,3.354056\n171.3798,3.353670\n171.3798,3.353670\n171.3069,3.350169\n171.2342,3.344674\n171.0995,3.332258\n171.0995,3.332258\n170.9517,3.332250\n170.8734,3.332732\n170.7971,3.334112\n170.7971,3.334112\n170.7558,3.333128\n170.7144,3.332217\n170.6730,3.331342\n170.6730,3.331342\n170.6263,3.321532\n170.5912,3.316045\n170.5377,3.310280\n170.5377,3.310280\n170.4614,3.310537\n170.3879,3.310717\n170.3159,3.310859\n170.3159,3.310859\n170.2534,3.315236\n170.1923,3.319570\n170.1339,3.323863\n170.1339,3.323863\n170.0747,3.323535\n170.0316,3.325180\n170.0310,3.326088\n170.0303,3.327070\n170.0296,3.328088\n170.0168,3.323285\n169.9617,3.323074\n169.9617,3.323074\n169.9160,3.314033\n169.8730,3.304882\n169.8314,3.295575\n169.8314,3.295575\n169.7797,3.295543\n169.7307,3.295513\n169.6830,3.295483\n169.6830,3.295483\n169.6374,3.298062\n169.5744,3.305074\n169.4402,3.322079\n169.4402,3.322079\n169.3652,3.322035\n169.2928,3.321993\n169.2218,3.321951\n169.2218,3.321951\n169.1996,3.313731\n169.1800,3.305353\n169.1618,3.296812\n169.1618,3.296812\n169.1288,3.295697\n169.0985,3.294622\n169.0695,3.293627\n169.0695,3.293627\n169.0048,3.293586\n168.9401,3.293546\n168.8755,3.293505\n168.8755,3.293505\n168.8311,3.298612\n168.7868,3.303619\n168.7425,3.308489\n168.7425,3.308489\n168.6806,3.310081\n168.6104,3.310637\n168.4717,3.310638\n168.4717,3.310638\n168.2484,3.304061\n168.0271,3.297384\n167.8089,3.290604\n167.8089,3.290604\n167.1523,3.272958\n166.5014,3.254583\n165.8565,3.235437\n164.7941,3.203032\n164.6493,3.199088\n164.5059,3.195213\n164.5059,3.195213\n164.4064,3.191719\n164.2362,3.186565\n164.1227,3.182194\n164.1227,3.182194\n162.7646,3.144099\n162.1197,3.125397\n161.9428,3.119406\n161.9428,3.119406\n161.4347,3.104662\n160.7669,3.083441\n160.0511,3.058694\n159.3957,3.034005\n##END=\n'