b"##TITLE=Methanethiol\n##JCAMP-DX=4.24\n##DATA TYPE=UV/VIS SPECTRUM\n##ORIGIN=INSTITUTE OF ENERGY PROBLEMS OF CHEMICAL PHYSICS, RAS\n##OWNER=INEP CP RAS, NIST OSRD\nCollection (C) 2007 copyright by the U.S. Secretary of Commerce\non behalf of the United States of America. All rights reserved.\n##CAS REGISTRY NO=74-93-1\n##MOLFORM=CH4S\n##BP=5.9\n##SOURCE REFERENCE=RAS UV No. 20091\n##$NIST SQUIB=1969BOL/83\n##$NIST SOURCE=TYUGLMTE\n##SPECTROMETER/DATA SYSTEM=unknown\n##XUNITS=Wavelength (nm)\n##YUNITS=Logarithm epsilon\n##XFACTOR=1.0\n##YFACTOR=1.0\n##FIRSTX=222.44\n##LASTX=284.15\n##FIRSTY=2.092\n##MAXX=284.15\n##MINX=222.44\n##MAXY=2.149\n##MINY=0.692\n##NPOINTS=67\n##$REF AUTHOR=Bol'shakov, G.F.; et al.\n##$REF JOURNAL=Ultraviolet spectra of heteroorganic compounds\n##$REF PAGE=83\n##$REF DATE=1969\n##XYPOINTS=(XY..XY)\n222.44,2.092\n223.66,2.111\n224.88,2.126\n226.25,2.134\n227.62,2.145\n228.99,2.149\n230.36,2.149\n231.73,2.141\n233.10,2.137\n234.48,2.130\n235.70,2.115\n236.76,2.096\n237.83,2.073\n238.59,2.047\n239.35,2.021\n240.11,1.995\n240.92,1.969\n241.76,1.943\n242.61,1.916\n243.47,1.886\n244.23,1.859\n245.14,1.833\n245.90,1.807\n246.67,1.781\n247.43,1.754\n248.19,1.728\n249.10,1.702\n249.87,1.675\n250.63,1.649\n251.39,1.623\n252.28,1.594\n253.10,1.570\n253.98,1.544\n254.74,1.518\n255.50,1.491\n256.31,1.464\n257.09,1.440\n257.94,1.413\n258.70,1.389\n259.62,1.360\n260.38,1.334\n261.14,1.307\n261.94,1.282\n262.82,1.251\n263.56,1.227\n264.50,1.198\n265.33,1.171\n266.17,1.142\n266.93,1.116\n267.85,1.090\n268.61,1.063\n269.46,1.036\n270.29,1.007\n271.05,0.981\n271.96,0.958\n272.88,0.932\n273.79,0.909\n274.70,0.883\n275.77,0.861\n276.69,0.838\n277.75,0.815\n278.67,0.793\n279.73,0.770\n280.80,0.748\n282.02,0.729\n283.09,0.710\n284.15,0.692\n##END=\n"