b'##TITLE=Acetonitrile\n##JCAMP-DX=4.24\n##DATA TYPE=UV/VIS SPECTRUM\n##ORIGIN=INSTITUTE OF ENERGY PROBLEMS OF CHEMICAL PHYSICS, RAS\n##OWNER=INEP CP RAS, NIST OSRD\nCollection (C) 2007 copyright by the U.S. Secretary of Commerce\non behalf of the United States of America. All rights reserved.\n##CAS REGISTRY NO=75-05-8\n##MOLFORM=C2H3N\n##MP=- 43.6\n##BP=81.6\n##SOURCE REFERENCE=RAS UV No. 13536\n##$NIST SQUIB=1959BEC1\n##$NIST SOURCE=TYUGLMTE\n##SPECTROMETER/DATA SYSTEM=Bekman DK-1\n##XUNITS=Wavelength (nm)\n##YUNITS=Logarithm epsilon\n##XFACTOR=1.0\n##YFACTOR=1.0\n##FIRSTX=305.82\n##LASTX=399.39\n##FIRSTY=2.02\n##MAXX=399.39\n##MINX=305.82\n##MAXY=2.107\n##MINY=0.968\n##NPOINTS=207\n##$REF AUTHOR=Becker, R.S.\n##$REF JOURNAL=J. Mol. Spectroscopy\n##$REF VOLUME=3\n##$REF PAGE=1\n##$REF DATE=1959\n##XYPOINTS=(XY..XY)\n305.82,2.020\n306.30,2.000\n306.78,1.985\n307.26,1.969\n307.75,1.956\n308.23,1.946\n308.71,1.935\n309.19,1.927\n309.68,1.917\n310.16,1.908\n310.64,1.900\n311.12,1.892\n311.61,1.884\n312.09,1.876\n312.57,1.870\n313.05,1.863\n313.54,1.860\n314.02,1.855\n314.50,1.853\n314.98,1.853\n315.46,1.853\n315.95,1.854\n316.43,1.855\n316.91,1.855\n317.39,1.858\n317.88,1.860\n318.36,1.863\n318.84,1.865\n319.32,1.870\n319.81,1.872\n320.29,1.876\n320.77,1.881\n321.25,1.885\n321.74,1.888\n322.22,1.892\n322.70,1.898\n323.18,1.903\n323.66,1.911\n324.15,1.914\n324.63,1.920\n325.11,1.925\n325.59,1.931\n326.08,1.935\n326.56,1.939\n327.04,1.944\n327.52,1.951\n328.01,1.953\n328.49,1.958\n328.97,1.962\n329.45,1.967\n329.94,1.971\n330.42,1.978\n330.90,1.983\n331.38,1.989\n331.86,1.995\n332.35,1.999\n332.83,2.004\n333.31,2.011\n333.79,2.015\n334.28,2.019\n334.76,2.023\n335.24,2.029\n335.72,2.033\n336.21,2.037\n336.69,2.041\n337.17,2.045\n337.65,2.048\n338.14,2.051\n338.62,2.054\n339.10,2.058\n339.58,2.061\n340.06,2.063\n340.55,2.066\n341.03,2.068\n341.51,2.071\n341.99,2.075\n342.48,2.077\n342.96,2.079\n343.44,2.082\n343.92,2.084\n344.41,2.086\n344.89,2.089\n345.37,2.090\n345.85,2.092\n346.34,2.094\n346.82,2.096\n347.30,2.098\n347.78,2.099\n348.26,2.101\n348.75,2.102\n349.23,2.103\n349.71,2.104\n350.19,2.105\n350.68,2.105\n351.16,2.105\n351.64,2.107\n352.12,2.107\n352.61,2.107\n353.09,2.107\n353.57,2.105\n354.05,2.105\n354.54,2.104\n355.02,2.102\n355.50,2.101\n355.98,2.098\n356.46,2.096\n356.95,2.094\n357.43,2.092\n357.91,2.089\n358.39,2.086\n358.88,2.084\n359.36,2.081\n359.84,2.078\n360.32,2.074\n360.81,2.071\n361.29,2.068\n361.77,2.064\n362.25,2.060\n362.74,2.056\n363.22,2.051\n363.70,2.045\n364.18,2.040\n364.66,2.036\n365.15,2.030\n365.63,2.024\n366.11,2.020\n366.59,2.013\n367.08,2.008\n367.56,2.001\n368.04,1.995\n368.52,1.988\n369.01,1.982\n369.49,1.975\n369.97,1.966\n370.45,1.959\n370.94,1.950\n371.42,1.941\n371.90,1.932\n372.38,1.920\n372.86,1.909\n373.35,1.899\n373.83,1.887\n374.31,1.876\n374.79,1.861\n375.28,1.849\n375.76,1.837\n376.24,1.825\n376.72,1.814\n377.21,1.801\n377.69,1.788\n378.17,1.774\n378.65,1.763\n379.14,1.750\n379.62,1.737\n380.10,1.722\n380.58,1.712\n381.06,1.702\n381.55,1.687\n382.03,1.674\n382.51,1.660\n382.99,1.650\n383.48,1.635\n383.96,1.622\n384.44,1.606\n384.92,1.593\n385.41,1.579\n385.89,1.563\n386.37,1.542\n386.85,1.525\n387.34,1.510\n387.82,1.492\n388.30,1.476\n388.78,1.456\n389.26,1.436\n389.75,1.420\n390.23,1.401\n390.71,1.374\n391.19,1.357\n391.68,1.338\n392.16,1.319\n392.64,1.299\n393.12,1.273\n393.61,1.246\n394.09,1.217\n394.57,1.191\n395.05,1.164\n395.54,1.135\n396.02,1.110\n396.50,1.090\n396.98,1.070\n397.46,1.041\n397.59,1.048\n397.71,1.041\n397.83,1.033\n397.95,1.033\n398.07,1.026\n398.19,1.026\n398.31,1.018\n398.43,1.010\n398.55,1.010\n398.67,1.002\n398.79,0.993\n398.91,0.993\n399.03,0.985\n399.15,0.976\n399.27,0.976\n399.39,0.968\n##END=\n'