b'##TITLE=Acetaldehyde\n##JCAMP-DX=4.24\n##DATA TYPE=UV/VIS SPECTRUM\n##ORIGIN=INSTITUTE OF ENERGY PROBLEMS OF CHEMICAL PHYSICS, RAS\n##OWNER=INEP CP RAS, NIST OSRD\nCollection (C) 2007 copyright by the U.S. Secretary of Commerce\non behalf of the United States of America. All rights reserved.\n##CAS REGISTRY NO=75-07-0\n##MOLFORM=C2H4O\n##MP=- 123\n##BP=20.1\n##SOURCE REFERENCE=RAS UV No. 12511\n##$NIST SQUIB=1956FIL/LET8\n##$NIST SOURCE=TYUGLMTE\n##SPECTROMETER/DATA SYSTEM=Beckman DU\n##XUNITS=Wavelength (nm)\n##YUNITS=Logarithm epsilon\n##XFACTOR=1.0\n##YFACTOR=1.0\n##FIRSTX=253.09\n##LASTX=323.71\n##FIRSTY=0.6\n##MAXX=323.71\n##MINX=253.09\n##MAXY=1.19\n##MINY=0.6\n##NPOINTS=96\n##$REF AUTHOR=Fillet, P.; Letort, M.\n##$REF JOURNAL=J. Chim. Phis.\n##$REF VOLUME=53\n##$REF PAGE=8\n##$REF DATE=1956\n##XYPOINTS=(XY..XY)\n253.09,0.600\n253.25,0.603\n253.40,0.606\n253.56,0.609\n253.71,0.613\n253.87,0.616\n254.64,0.637\n255.42,0.661\n256.20,0.684\n256.97,0.708\n257.75,0.733\n258.52,0.755\n259.30,0.776\n260.08,0.799\n260.85,0.822\n261.63,0.841\n262.40,0.856\n263.18,0.877\n263.96,0.893\n264.73,0.911\n265.51,0.930\n266.28,0.950\n267.06,0.968\n267.84,0.984\n268.61,1.000\n269.39,1.010\n270.16,1.025\n270.94,1.038\n271.72,1.052\n272.49,1.065\n273.27,1.076\n274.04,1.089\n274.82,1.099\n275.60,1.111\n276.37,1.119\n277.15,1.128\n277.92,1.136\n278.70,1.145\n279.48,1.151\n280.25,1.158\n281.03,1.164\n281.80,1.167\n282.58,1.174\n283.36,1.175\n284.13,1.182\n284.91,1.184\n285.68,1.185\n286.46,1.187\n287.24,1.188\n288.01,1.188\n288.79,1.190\n289.56,1.190\n290.34,1.188\n291.12,1.187\n291.89,1.184\n292.67,1.184\n293.44,1.180\n294.22,1.177\n295.00,1.172\n295.77,1.167\n296.55,1.164\n297.32,1.158\n298.10,1.154\n298.88,1.148\n299.65,1.140\n300.43,1.132\n301.20,1.125\n301.98,1.117\n302.76,1.107\n303.53,1.099\n304.31,1.089\n305.08,1.081\n305.86,1.068\n306.64,1.057\n307.41,1.046\n308.19,1.033\n308.96,1.021\n309.74,1.007\n310.52,0.989\n311.29,0.973\n312.07,0.958\n312.84,0.942\n313.62,0.927\n314.40,0.909\n315.17,0.893\n315.95,0.874\n316.72,0.856\n317.45,0.839\n318.28,0.814\n319.05,0.791\n319.83,0.767\n320.60,0.742\n321.38,0.715\n322.12,0.682\n322.93,0.645\n323.71,0.606\n##END=\n'