b'##TITLE=Ethane, iodo-\n##JCAMP-DX=4.24\n##DATA TYPE=UV/VIS SPECTRUM\n##ORIGIN=INSTITUTE OF ENERGY PROBLEMS OF CHEMICAL PHYSICS, RAS\n##OWNER=INEP CP RAS, NIST OSRD\nCollection (C) 2007 copyright by the U.S. Secretary of Commerce\non behalf of the United States of America. All rights reserved.\n##CAS REGISTRY NO=75-03-6\n##MOLFORM=C2H5I\n##MP=-111.1\n##BP=72.5\n##SOURCE REFERENCE=RAS UV No. 1440\n##$NIST SQUIB=1961KIM/NAG166-183\n##$NIST SOURCE=TSGMTE\n##SPECTROMETER/DATA SYSTEM=n.i.g.\n##XUNITS=Wavelength (nm)\n##YUNITS=Logarithm epsilon\n##XFACTOR=1.000000\n##YFACTOR=1.000000\n##FIRSTX=210.0000\n##LASTX=246.0000\n##FIRSTY=1.73\n##MAXX=246\n##MINX=210\n##MAXY=2.69\n##MINY=1.69\n##NPOINTS=37\n##$REF AUTHOR=Kimura, K.; Nagakura, S.\n##$REF TITLE=n \xabrarrow\xbb \xabsigma\xbb* Absorption spectra of saturated organic compounds containing bromine and iodine\n##$REF JOURNAL=Spectrochim. Acta\n##$REF VOLUME=17\n##$REF PAGE=166-183\n##$REF DATE=1961\n##XYPOINTS=(XY..XY)\n210.0000,1.730000\n211.0000,1.690000\n212.0000,1.710000\n213.0000,1.710000\n214.0000,1.730000\n215.0000,1.740000\n216.0000,1.760000\n217.0000,1.770000\n218.0000,1.770000\n219.0000,1.790000\n220.0000,1.810000\n221.0000,1.850000\n222.0000,1.860000\n223.0000,1.900000\n224.0000,1.930000\n225.0000,1.950000\n226.0000,1.970000\n227.0000,2.000000\n228.0000,2.040000\n229.0000,2.080000\n230.0000,2.110000\n231.0000,2.150000\n232.0000,2.200000\n233.0000,2.230000\n234.0000,2.280000\n235.0000,2.310000\n236.0000,2.340000\n237.0000,2.360000\n238.0000,2.410000\n239.0000,2.430000\n240.0000,2.480000\n241.0000,2.500000\n242.0000,2.540000\n243.0000,2.570000\n244.0000,2.600000\n245.0000,2.650000\n246.0000,2.690000\n##END=\n'