b'##TITLE=Ethanethiol\n##JCAMP-DX=4.24\n##DATA TYPE=UV/VIS SPECTRUM\n##ORIGIN=INSTITUTE OF ENERGY PROBLEMS OF CHEMICAL PHYSICS, RAS\n##OWNER=INEP CP RAS, NIST OSRD\nCollection (C) 2007 copyright by the U.S. Secretary of Commerce\non behalf of the United States of America. All rights reserved.\n##CAS REGISTRY NO=75-08-1\n##MOLFORM=C2H6S\n##MP=-147.8\n##BP=35.1\n##SOURCE REFERENCE=RAS UV No. 776\n##$NIST SQUIB=1954HAI/HEL270-278\n##$NIST SOURCE=TSGMTE\n##SPECTROMETER/DATA SYSTEM=Beckman DU\n##XUNITS=Wavelength (nm)\n##YUNITS=Logarithm epsilon\n##XFACTOR=1.000000\n##YFACTOR=1.000000\n##FIRSTX=210.1808\n##LASTX=276.5217\n##FIRSTY=2.54113\n##MAXX=276.522\n##MINX=210.181\n##MAXY=2.54113\n##MINY=0.054843\n##NPOINTS=149\n##$REF AUTHOR=Haines, W.E.; Helm, R.V.; Bailey, c.W.; Ball, J.S.\n##$REF TITLE=Purification and properties of ten organic sulfur compounds\n##$REF JOURNAL=J. Phys. Chem.\n##$REF VOLUME=58\n##$REF PAGE=270-278\n##$REF DATE=1954\n##XYPOINTS=(XY..XY)\n210.1808,2.541134\n210.4669,2.523911\n210.7566,2.506502\n211.0540,2.488999\n211.7572,2.437302\n212.0447,2.427262\n212.3360,2.417129\n212.6348,2.406810\n212.6348,2.406810\n212.7537,2.406796\n212.8727,2.406781\n212.9917,2.406766\n212.9917,2.406766\n213.3223,2.365903\n214.0149,2.328092\n214.9617,2.292348\n216.0547,2.257684\n217.1860,2.223116\n217.1860,2.223116\n217.7034,2.219800\n217.9979,2.216418\n218.3221,2.210074\n218.3221,2.210074\n219.5127,2.208294\n219.9970,2.206508\n220.1902,2.203186\n220.3601,2.203165\n222.2531,2.203935\n224.2187,2.209043\n226.0915,2.222025\n226.0915,2.222025\n227.4176,2.224237\n228.7437,2.226263\n230.0697,2.228198\n230.0697,2.228198\n230.4350,2.220137\n230.9406,2.214463\n232.0197,2.206315\n233.5967,2.188641\n234.2558,2.182610\n235.0011,2.173331\n235.7158,2.162576\n236.9360,2.145361\n237.1401,2.143240\n237.3480,2.141025\n237.5634,2.138625\n239.4094,2.106350\n239.8161,2.097560\n240.2266,2.088768\n240.6447,2.079977\n241.8622,2.049860\n242.3238,2.038442\n242.7929,2.026838\n243.2657,2.015142\n244.6684,1.976261\n244.9268,1.968321\n245.1927,1.960381\n245.4623,1.952439\n246.6105,1.915672\n246.9310,1.903546\n247.2514,1.891329\n247.5718,1.878926\n248.3648,1.850526\n248.6518,1.838405\n248.9427,1.826191\n249.2410,1.813791\n250.4554,1.768275\n250.6606,1.755840\n250.8442,1.748588\n251.1635,1.740301\n252.2089,1.699383\n252.4664,1.687266\n252.7314,1.675056\n253.0002,1.662659\n253.7915,1.625935\n254.1272,1.614840\n254.4622,1.599862\n254.7518,1.584612\n255.5422,1.543725\n255.8734,1.525787\n256.1528,1.513127\n256.3156,1.502424\n257.1069,1.465700\n257.3425,1.454310\n257.5781,1.442735\n257.8136,1.431068\n258.5025,1.392275\n258.7594,1.377244\n259.0239,1.362119\n259.2920,1.346809\n259.8964,1.310109\n260.0352,1.299562\n260.1816,1.288830\n260.3317,1.278006\n261.1212,1.232541\n261.3227,1.220430\n261.5241,1.208229\n261.7256,1.195839\n262.5151,1.150376\n262.6832,1.138268\n262.8550,1.126070\n263.0344,1.113683\n263.7390,1.068230\n263.9071,1.056123\n264.0789,1.043924\n264.2583,1.031538\n264.9459,0.986086\n265.1477,0.972619\n265.3533,0.958965\n265.5664,0.945222\n266.3550,0.895594\n266.5559,0.880568\n266.7568,0.865453\n266.9576,0.850150\n267.5593,0.800545\n267.7272,0.787609\n267.8989,0.774575\n268.0782,0.761356\n268.9496,0.700903\n268.9683,0.693841\n269.1071,0.683245\n269.4851,0.660049\n270.0027,0.614613\n270.1704,0.600428\n270.3418,0.586148\n270.5208,0.571686\n271.0396,0.532487\n271.2075,0.519027\n271.3790,0.505381\n271.5582,0.491642\n272.0749,0.442041\n272.2770,0.429930\n272.4829,0.417737\n272.6962,0.405346\n273.2970,0.351158\n273.4133,0.338237\n273.5297,0.325331\n273.6460,0.312410\n274.3323,0.260715\n274.7093,0.232666\n274.8475,0.219139\n274.8655,0.208629\n275.3836,0.165689\n275.5514,0.151921\n275.7229,0.138176\n275.9020,0.124406\n276.2532,0.096493\n276.3856,0.075656\n276.5217,0.054843\n##END=\n'