b'##TITLE=Dimethyl sulfide\n##JCAMP-DX=4.24\n##DATA TYPE=UV/VIS SPECTRUM\n##ORIGIN=INSTITUTE OF ENERGY PROBLEMS OF CHEMICAL PHYSICS, RAS\n##OWNER=INEP CP RAS, NIST OSRD\nCollection (C) 2007 copyright by the U.S. Secretary of Commerce\non behalf of the United States of America. All rights reserved.\n##CAS REGISTRY NO=75-18-3\n##MOLFORM=C2H6S\n##MP=79\n##BP=203\n##SOURCE REFERENCE=RAS UV No. 10217\n##$NIST SQUIB=1949FEH/CAR84\n##$NIST SOURCE=TYUGLMTE\n##SPECTROMETER/DATA SYSTEM=Beckman DU\n##XUNITS=Wavelength (nm)\n##YUNITS=Logarithm epsilon\n##XFACTOR=1.0\n##YFACTOR=1.0\n##FIRSTX=207.13\n##LASTX=259.82\n##FIRSTY=2.913\n##MAXX=259.82\n##MINX=207.13\n##MAXY=3\n##MINY=0.062\n##NPOINTS=71\n##$REF AUTHOR=Fehnel, E.A.; Carmack, M.\n##$REF JOURNAL=J. Am. Chem. Soc.\n##$REF VOLUME=71\n##$REF PAGE=84\n##$REF DATE=1949\n##XYPOINTS=(XY..XY)\n207.13,2.913\n207.38,2.923\n207.64,2.933\n207.89,2.949\n208.15,2.959\n208.65,2.974\n209.42,2.995\n210.18,3.000\n210.95,2.995\n211.71,2.990\n212.47,2.979\n213.24,2.969\n214.76,2.928\n215.53,2.908\n216.29,2.882\n217.05,2.851\n217.82,2.815\n218.58,2.779\n219.35,2.754\n220.11,2.713\n220.87,2.636\n222.40,2.528\n223.16,2.472\n223.93,2.426\n224.69,2.390\n225.45,2.354\n226.22,2.303\n226.98,2.251\n227.75,2.226\n228.51,2.149\n229.27,2.128\n230.04,2.087\n230.80,2.056\n231.56,2.026\n232.33,1.985\n233.09,1.954\n233.85,1.923\n234.62,1.897\n235.38,1.867\n236.15,1.841\n236.91,1.810\n237.67,1.779\n238.44,1.749\n239.20,1.713\n239.96,1.667\n240.73,1.615\n241.49,1.579\n242.25,1.523\n243.02,1.477\n243.78,1.421\n244.55,1.369\n245.31,1.318\n246.07,1.251\n246.84,1.185\n247.60,1.046\n248.36,1.000\n249.13,0.903\n249.89,0.821\n250.65,0.774\n251.42,0.703\n252.18,0.641\n252.95,0.544\n253.71,0.487\n254.47,0.426\n255.24,0.364\n256.00,0.308\n256.76,0.226\n257.53,0.185\n258.29,0.154\n259.05,0.118\n259.82,0.062\n##END=\n'