b'##TITLE=Ethylene oxide\n##JCAMP-DX=4.24\n##DATA TYPE=UV/VIS SPECTRUM\n##ORIGIN=INSTITUTE OF ENERGY PROBLEMS OF CHEMICAL PHYSICS, RAS\n##OWNER=INEP CP RAS, NIST OSRD\nCollection (C) 2007 copyright by the U.S. Secretary of Commerce\non behalf of the United States of America. All rights reserved.\n##CAS REGISTRY NO=75-21-8\n##MOLFORM=C2H4O\n##MP=- 111.7\n##BP=10.6\n##SOURCE REFERENCE=RAS UV No. 12873\n##$NIST SQUIB=1959FLE/351\n##$NIST SOURCE=TYUGLMTE\n##SPECTROMETER/DATA SYSTEM=n.i.g.\n##XUNITS=Wavelength (nm)\n##YUNITS=Logarithm epsilon\n##XFACTOR=1.0\n##YFACTOR=1.0\n##FIRSTX=156.44\n##LASTX=182.33\n##FIRSTY=3.665\n##MAXX=182.33\n##MINX=156.44\n##MAXY=3.727\n##MINY=1.994\n##NPOINTS=168\n##$REF AUTHOR=Fleming, G.; et al.\n##$REF JOURNAL=J. Chem. Phys.\n##$REF VOLUME=30\n##$REF PAGE=351\n##$REF DATE=1959\n##XYPOINTS=(XY..XY)\n156.44,3.665\n156.57,3.655\n156.70,3.603\n156.83,3.544\n156.96,3.482\n157.10,3.454\n157.23,3.433\n157.36,3.416\n157.49,3.381\n157.62,3.295\n157.75,3.288\n157.88,3.284\n158.15,3.305\n158.42,3.333\n158.55,3.361\n158.68,3.454\n158.82,3.565\n158.95,3.713\n159.08,3.727\n159.22,3.696\n159.35,3.627\n159.49,3.561\n159.62,3.399\n159.76,3.260\n159.89,3.212\n160.03,3.163\n160.17,3.132\n160.30,3.104\n160.44,3.077\n160.58,3.056\n160.85,3.025\n160.99,3.008\n161.12,3.008\n161.26,2.994\n161.40,2.994\n161.54,2.997\n161.68,3.008\n161.96,3.011\n162.10,3.008\n162.23,3.008\n162.37,3.008\n162.51,3.008\n162.65,3.011\n162.80,3.028\n162.94,3.053\n163.08,3.070\n163.22,3.091\n163.36,3.122\n163.50,3.122\n163.64,3.132\n163.79,3.136\n163.93,3.139\n164.07,3.143\n164.21,3.156\n164.36,3.174\n164.50,3.174\n164.64,3.188\n164.79,3.198\n164.93,3.201\n165.08,3.212\n165.22,3.219\n165.37,3.222\n165.51,3.222\n165.66,3.233\n165.80,3.239\n165.95,3.243\n166.10,3.257\n166.24,3.274\n166.39,3.305\n166.54,3.322\n166.68,3.326\n166.83,3.336\n166.98,3.354\n167.13,3.361\n167.27,3.374\n167.42,3.388\n167.57,3.388\n167.72,3.402\n167.87,3.406\n168.02,3.416\n168.17,3.419\n168.32,3.423\n168.47,3.419\n168.62,3.426\n168.77,3.433\n168.92,3.447\n169.08,3.468\n169.23,3.468\n169.53,3.489\n169.68,3.506\n169.84,3.523\n169.99,3.544\n170.14,3.565\n170.30,3.589\n170.45,3.596\n170.61,3.613\n170.76,3.617\n170.92,3.582\n171.07,3.530\n171.23,3.499\n171.38,3.433\n171.54,3.381\n171.69,3.354\n171.85,3.354\n172.01,3.367\n172.17,3.395\n172.32,3.468\n172.48,3.544\n172.64,3.585\n172.80,3.603\n173.11,3.596\n173.27,3.575\n173.43,3.520\n173.59,3.461\n173.75,3.423\n173.91,3.364\n174.07,3.316\n174.23,3.264\n174.40,3.198\n174.56,3.146\n174.72,3.080\n174.88,3.015\n175.04,2.949\n175.21,2.911\n175.37,2.852\n175.53,2.828\n175.70,2.783\n175.86,2.745\n176.02,2.710\n176.19,2.679\n176.35,2.644\n176.52,2.613\n176.69,2.589\n176.85,2.561\n177.02,2.527\n177.18,2.499\n177.35,2.475\n177.52,2.475\n177.68,2.447\n177.85,2.426\n178.02,2.426\n178.19,2.395\n178.53,2.364\n178.70,2.371\n178.87,2.343\n179.04,2.326\n179.21,2.298\n179.38,2.281\n179.55,2.278\n179.72,2.250\n180.06,2.226\n180.23,2.198\n180.41,2.181\n180.58,2.181\n180.75,2.149\n180.93,2.129\n181.27,2.104\n181.45,2.084\n181.62,2.060\n181.80,2.042\n181.92,2.028\n181.97,2.025\n182.03,2.021\n182.09,2.015\n182.15,2.011\n182.21,2.004\n182.27,2.001\n182.33,1.994\n##END=\n'