b'##TITLE=Methane, tribromo-\n##JCAMP-DX=4.24\n##DATA TYPE=UV/VIS SPECTRUM\n##ORIGIN=INSTITUTE OF ENERGY PROBLEMS OF CHEMICAL PHYSICS, RAS\n##OWNER=INEP CP RAS, NIST OSRD\nCollection (C) 2007 copyright by the U.S. Secretary of Commerce\non behalf of the United States of America. All rights reserved.\n##CAS REGISTRY NO=75-25-2\n##MOLFORM=CHBr3\n##BP=150\n##SOURCE REFERENCE=RAS UV No. 19863\n##$NIST SQUIB=1971DOR/BUTi/2\n##$NIST SOURCE=TYUGLMTE\n##SPECTROMETER/DATA SYSTEM=Zeiss PMQ II\n##XUNITS=Wavelength (nm)\n##YUNITS=Logarithm epsilon\n##XFACTOR=1.0\n##YFACTOR=1.0\n##FIRSTX=198.68\n##LASTX=290.61\n##FIRSTY=3.197\n##MAXX=290.61\n##MINX=198.68\n##MAXY=3.319\n##MINY=1.264\n##NPOINTS=136\n##$REF AUTHOR=Dorr, F.; Buttgereit, G.\n##$REF JOURNAL=UV atlas of organic compounds\n##$REF VOLUME=5\n##$REF PAGE=I/2\n##$REF DATE=1971\n##XYPOINTS=(XY..XY)\n198.68,3.197\n198.76,3.197\n198.85,3.197\n198.93,3.197\n199.02,3.197\n199.10,3.197\n199.19,3.197\n199.27,3.199\n199.36,3.199\n199.45,3.199\n199.53,3.199\n199.62,3.199\n199.70,3.199\n199.79,3.201\n199.88,3.201\n200.14,3.201\n200.66,3.203\n201.18,3.207\n201.71,3.212\n202.23,3.214\n202.77,3.216\n203.30,3.218\n203.84,3.220\n204.38,3.224\n204.92,3.227\n205.47,3.229\n206.02,3.231\n206.57,3.231\n207.12,3.231\n207.68,3.229\n208.24,3.229\n208.80,3.229\n209.37,3.229\n209.94,3.229\n210.51,3.231\n211.09,3.235\n211.67,3.239\n212.23,3.243\n212.84,3.248\n213.41,3.253\n214.02,3.259\n214.61,3.265\n215.31,3.271\n215.81,3.276\n216.43,3.282\n217.03,3.286\n217.64,3.291\n218.26,3.295\n218.87,3.300\n219.50,3.303\n220.04,3.307\n220.82,3.311\n221.39,3.314\n222.02,3.316\n222.67,3.318\n223.31,3.319\n223.95,3.318\n224.63,3.317\n225.27,3.314\n225.93,3.308\n226.59,3.301\n227.26,3.295\n227.93,3.288\n228.60,3.282\n229.28,3.273\n229.97,3.263\n230.65,3.250\n231.35,3.237\n232.04,3.224\n232.74,3.210\n233.45,3.195\n234.16,3.184\n234.87,3.165\n235.59,3.152\n236.31,3.137\n237.03,3.122\n237.76,3.109\n238.50,3.095\n239.24,3.075\n239.98,3.063\n240.73,3.050\n241.49,3.035\n242.24,3.022\n243.01,3.007\n243.77,2.994\n244.55,2.979\n245.33,2.967\n246.11,2.952\n246.90,2.939\n247.69,2.922\n248.49,2.909\n249.29,2.894\n250.10,2.879\n250.91,2.862\n251.73,2.845\n252.55,2.828\n253.38,2.811\n254.22,2.790\n255.06,2.766\n255.90,2.741\n256.76,2.715\n257.61,2.694\n258.48,2.671\n259.35,2.645\n260.22,2.617\n261.10,2.587\n261.99,2.558\n262.88,2.530\n263.78,2.498\n264.69,2.466\n265.58,2.434\n266.50,2.406\n267.39,2.376\n268.37,2.342\n269.31,2.304\n270.25,2.259\n271.20,2.219\n272.16,2.174\n273.12,2.134\n274.09,2.082\n275.07,2.044\n276.05,1.997\n277.04,1.957\n277.94,1.911\n279.05,1.861\n280.05,1.813\n281.08,1.765\n282.11,1.720\n283.14,1.680\n284.19,1.635\n285.23,1.586\n286.30,1.526\n287.22,1.470\n288.44,1.396\n289.52,1.333\n290.61,1.264\n##END=\n'