b'##TITLE=2,1,3-Benzothiadiazole, tetrafluoro-\n##JCAMP-DX=4.24\n##DATA TYPE=UV/VIS SPECTRUM\n##ORIGIN=INSTITUTE OF ENERGY PROBLEMS OF CHEMICAL PHYSICS, RAS\n##OWNER=INEP CP RAS, NIST OSRD\nCollection (C) 2007 copyright by the U.S. Secretary of Commerce\non behalf of the United States of America. All rights reserved.\n##CAS REGISTRY NO=75207-77-1\n##MOLFORM=C6F4N2S\n##MP=51-52\n##SOURCE REFERENCE=RAS UV No. 18446\n##$NIST SQUIB=1980KOP86\n##$NIST SOURCE=TYUGLMTE\n##SPECTROMETER/DATA SYSTEM=SF 16\n##XUNITS=Wavelength (nm)\n##YUNITS=Logarithm epsilon\n##XFACTOR=1.0\n##YFACTOR=1.0\n##FIRSTX=212.79\n##LASTX=372.6\n##FIRSTY=3.975\n##MAXX=372.6\n##MINX=212.79\n##MAXY=4.096\n##MINY=2.022\n##NPOINTS=99\n##$REF AUTHOR=(editor), Koptyug V.A.\n##$REF JOURNAL=Atlas of Spectra of Aromatic and Heterocyclic Compounds\n##$REF VOLUME=18\n##$REF PAGE=86\n##$REF DATE=1980\n##XYPOINTS=(XY..XY)\n212.79,3.975\n213.32,3.980\n213.85,3.985\n214.38,3.990\n214.92,4.000\n215.45,4.005\n215.98,4.010\n216.51,4.015\n217.05,4.020\n217.58,4.026\n219.18,4.041\n220.78,4.061\n222.37,4.081\n223.97,4.091\n225.57,4.096\n227.17,4.091\n228.77,4.076\n230.36,4.046\n231.96,3.970\n233.56,3.899\n239.95,3.536\n244.21,2.769\n245.81,2.542\n247.41,2.471\n249.01,2.456\n250.61,2.471\n252.21,2.481\n253.80,2.496\n255.40,2.582\n257.00,2.648\n258.60,2.703\n265.52,3.011\n267.12,3.041\n268.72,3.097\n270.32,3.152\n271.92,3.223\n273.51,3.279\n275.11,3.324\n276.71,3.369\n278.31,3.415\n279.91,3.470\n281.50,3.526\n283.10,3.576\n284.70,3.637\n286.30,3.672\n287.90,3.708\n289.50,3.753\n291.09,3.803\n292.69,3.849\n294.29,3.879\n295.89,3.909\n297.49,3.920\n299.08,3.920\n300.68,3.920\n302.28,3.925\n303.88,3.945\n305.48,3.945\n307.07,3.945\n308.67,3.965\n310.27,3.950\n311.87,3.798\n313.47,3.647\n315.07,3.561\n316.66,3.511\n318.26,3.470\n319.86,3.445\n321.46,3.425\n323.06,3.410\n324.65,3.390\n326.25,3.374\n327.85,3.364\n329.45,3.349\n331.05,3.339\n332.64,3.329\n334.24,3.319\n335.84,3.309\n337.44,3.294\n339.04,3.279\n340.64,3.258\n342.23,3.243\n343.83,3.218\n345.43,3.183\n347.03,3.147\n348.63,3.117\n350.22,3.082\n351.82,3.046\n353.42,3.036\n355.02,3.006\n356.62,2.930\n358.21,2.860\n359.81,2.799\n361.41,2.738\n363.01,2.673\n364.61,2.557\n366.21,2.471\n367.80,2.350\n369.40,2.178\n371.00,2.108\n372.60,2.022\n##END=\n'