b'##TITLE=Acetyl chloride\n##JCAMP-DX=4.24\n##DATA TYPE=UV/VIS SPECTRUM\n##ORIGIN=INSTITUTE OF ENERGY PROBLEMS OF CHEMICAL PHYSICS, RAS\n##OWNER=INEP CP RAS, NIST OSRD\nCollection (C) 2007 copyright by the U.S. Secretary of Commerce\non behalf of the United States of America. All rights reserved.\n##CAS REGISTRY NO=75-36-5\n##MOLFORM=C2H3ClO\n##BP=50.7\n##SOURCE REFERENCE=RAS UV No. 10189\n##$NIST SQUIB=1952NAG164\n##$NIST SOURCE=TYUGLMTE\n##SPECTROMETER/DATA SYSTEM=Beckman DU\n##XUNITS=Wavelength (nm)\n##YUNITS=Logarithm epsilon\n##XFACTOR=1.0\n##YFACTOR=1.0\n##FIRSTX=213\n##LASTX=261.82\n##FIRSTY=1.932\n##MAXX=261.82\n##MINX=213\n##MAXY=2.002\n##MINY=1.014\n##NPOINTS=57\n##$REF AUTHOR=Nagakura, S.\n##$REF JOURNAL=Bull. Chem. Soc. Japan.\n##$REF VOLUME=25\n##$REF PAGE=164\n##$REF DATE=1952\n##XYPOINTS=(XY..XY)\n213.00,1.932\n213.27,1.933\n213.55,1.935\n213.82,1.936\n214.09,1.937\n214.36,1.938\n214.64,1.940\n214.91,1.941\n215.18,1.942\n215.45,1.946\n216.00,1.955\n216.55,1.965\n217.64,1.974\n218.18,1.977\n218.73,1.986\n219.27,1.994\n220.36,2.000\n220.91,2.002\n221.45,2.002\n222.00,1.998\n222.55,1.993\n223.09,1.990\n224.73,1.967\n225.27,1.959\n226.36,1.947\n226.91,1.933\n227.45,1.922\n228.00,1.907\n229.09,1.883\n229.64,1.864\n230.73,1.835\n231.27,1.832\n232.36,1.791\n234.00,1.751\n235.09,1.707\n236.18,1.667\n237.27,1.613\n237.82,1.597\n240.00,1.523\n240.55,1.506\n243.27,1.422\n243.82,1.401\n244.36,1.384\n247.64,1.311\n248.73,1.290\n249.27,1.279\n249.82,1.267\n253.09,1.191\n253.64,1.184\n254.18,1.177\n254.73,1.163\n255.82,1.148\n256.36,1.140\n259.64,1.063\n260.73,1.035\n261.27,1.025\n261.82,1.014\n##END=\n'