b'##TITLE=Propane, 2-iodo-\n##JCAMP-DX=4.24\n##DATA TYPE=UV/VIS SPECTRUM\n##ORIGIN=INSTITUTE OF ENERGY PROBLEMS OF CHEMICAL PHYSICS, RAS\n##OWNER=INEP CP RAS, NIST OSRD\nCollection (C) 2007 copyright by the U.S. Secretary of Commerce\non behalf of the United States of America. All rights reserved.\n##CAS REGISTRY NO=75-30-9\n##MOLFORM=C3H7I\n##MP=-90\n##BP=89.5\n##SOURCE REFERENCE=RAS UV No. 9105\n##$NIST SQUIB=1971PER/SCHi/5C\n##$NIST SOURCE=TSGMTE\n##SPECTROMETER/DATA SYSTEM=Zeiss PMQ II\n##XUNITS=Wavelength (nm)\n##YUNITS=Logarithm epsilon\n##XFACTOR=1.000000\n##YFACTOR=1.000000\n##FIRSTX=306.0368\n##LASTX=212.3667\n##FIRSTY=1.19428\n##MAXX=306.037\n##MINX=212.367\n##MAXY=2.71828\n##MINY=1.19428\n##NPOINTS=1000\n##$REF AUTHOR=Perkampus, H.-H.; Schmiele, C.; Braunschweig, T.H.\n##$REF TITLE=2-Iodopropane\n##$REF BOOK TITLE=UV Atlas of Organic Compounds - Vol. 5\n##$REF PAGE=I/5\n##$REF DATE=1971\n##$REF PUBLISHER=Plenum Press\n##$REF LOCATION=New York\n##XYPOINTS=(XY..XY)\n306.0368,1.194276\n306.0286,1.202970\n305.8321,1.204993\n305.8260,1.211385\n305.6298,1.213411\n305.6216,1.222102\n305.4014,1.224126\n305.3953,1.230518\n305.1996,1.232541\n305.1936,1.238934\n304.9980,1.241215\n304.9900,1.249651\n304.7707,1.251672\n304.7647,1.258065\n304.5696,1.260346\n304.5594,1.271084\n304.3649,1.273108\n304.3629,1.275152\n304.1443,1.277430\n304.1364,1.285868\n303.9423,1.287894\n303.9342,1.296586\n303.7404,1.298611\n303.7344,1.305003\n303.5169,1.307025\n303.5088,1.315716\n303.3155,1.317742\n303.3076,1.326178\n303.1144,1.328459\n303.1065,1.336896\n302.8899,1.338918\n302.8818,1.347611\n302.6894,1.349637\n302.6834,1.356028\n302.4912,1.358053\n302.4850,1.364699\n302.2693,1.366722\n302.2615,1.375159\n302.0696,1.377439\n302.0618,1.385876\n301.8704,1.387902\n301.8644,1.394294\n301.6494,1.396571\n301.6435,1.402963\n301.4526,1.404988\n301.4467,1.411379\n301.2561,1.413404\n301.2481,1.422097\n301.0341,1.424119\n301.0282,1.430510\n300.8381,1.432535\n300.8301,1.441228\n300.6403,1.443254\n300.6325,1.451690\n300.4192,1.453968\n300.4134,1.460360\n300.2240,1.462385\n300.2161,1.471077\n300.0270,1.473101\n300.0153,1.485885\n299.8265,1.487910\n299.8225,1.492256\n299.6106,1.494278\n299.6085,1.496580\n299.4202,1.498604\n299.4104,1.509342\n299.2223,1.511367\n299.2146,1.519804\n299.0033,1.522082\n298.9975,1.528473\n298.8100,1.530498\n298.8023,1.538935\n298.6148,1.541216\n298.6109,1.545562\n298.4007,1.547585\n298.3949,1.553976\n298.2081,1.556001\n298.2002,1.564693\n298.0137,1.566719\n298.0060,1.575156\n297.7965,1.577433\n297.7907,1.583825\n297.6047,1.585850\n297.5971,1.594286\n297.4110,1.596567\n297.4035,1.605004\n297.1949,1.607027\n297.1892,1.613418\n297.0037,1.615699\n296.9961,1.624136\n296.8111,1.626161\n296.8054,1.632552\n296.5975,1.634830\n296.5899,1.643267\n296.4051,1.645548\n296.3976,1.653985\n296.2133,1.656009\n296.2076,1.662401\n296.0005,1.664679\n295.9930,1.673116\n295.8092,1.675141\n295.8035,1.681532\n295.6197,1.683813\n295.6161,1.687903\n295.4099,1.690182\n295.4024,1.698619\n295.2193,1.700643\n295.2137,1.707035\n295.0306,1.709316\n295.0231,1.717753\n294.8179,1.719774\n294.8121,1.726422\n294.6297,1.728447\n294.6223,1.736884\n294.4400,1.739165\n294.4325,1.747601\n294.2282,1.749623\n294.2225,1.756015\n294.0407,1.758296\n294.0333,1.766733\n293.8519,1.768758\n293.8443,1.777450\n293.6407,1.779472\n293.6351,1.785864\n293.4543,1.787889\n293.4466,1.796582\n293.2660,1.798606\n293.2604,1.804998\n293.0800,1.807023\n293.0724,1.815716\n292.8699,1.817738\n292.8643,1.824130\n292.6842,1.826410\n292.6786,1.832801\n292.4989,1.834826\n292.4933,1.841218\n292.2917,1.843240\n292.2861,1.849632\n292.1067,1.851912\n292.0993,1.860349\n291.9203,1.862374\n291.9128,1.871067\n291.7119,1.873089\n291.7064,1.879481\n291.5279,1.881506\n291.5204,1.890199\n291.3421,1.892223\n291.3366,1.898615\n291.1365,1.900637\n291.1290,1.909330\n290.9512,1.911355\n290.9437,1.920047\n290.7661,1.922072\n290.7606,1.928464\n290.5613,1.930486\n290.5539,1.939179\n290.3768,1.941203\n290.3713,1.947595\n290.1944,1.949620\n290.1889,1.956012\n289.9902,1.958290\n289.9812,1.968772\n289.8046,1.971052\n289.7974,1.979489\n289.6212,1.981514\n289.6120,1.992252\n289.4161,1.992229\n289.4124,1.996575\n289.2366,1.998600\n289.2292,2.007293\n289.0537,2.009318\n289.0500,2.013664\n288.8548,2.013641\n288.8459,2.024123\n288.6726,2.024103\n288.6653,2.032795\n288.4904,2.034820\n288.4833,2.043257\n288.2888,2.043234\n288.2815,2.051927\n288.1072,2.053952\n288.1000,2.062389\n287.9257,2.064669\n287.9222,2.068760\n287.7266,2.071038\n287.7232,2.075128\n287.5493,2.077409\n287.5422,2.085846\n287.3704,2.085825\n287.3631,2.094518\n287.1702,2.094495\n287.1648,2.100887\n286.9935,2.100866\n286.9901,2.104957\n286.8171,2.107237\n286.8100,2.115674\n286.6392,2.115654\n286.6321,2.124091\n286.4401,2.124068\n286.4348,2.130459\n286.2625,2.132740\n286.2572,2.139131\n286.0869,2.139111\n286.0816,2.145503\n285.8904,2.145480\n285.8851,2.151871\n285.7136,2.153896\n285.7083,2.160288\n285.5370,2.162313\n285.5351,2.164614\n285.3429,2.166636\n285.3376,2.173027\n285.1668,2.175052\n285.1597,2.183745\n284.9907,2.183724\n284.9855,2.190116\n284.7957,2.190093\n284.7868,2.200831\n284.6167,2.202856\n284.6150,2.204901\n284.4467,2.204881\n284.4432,2.209227\n284.2524,2.211249\n284.2436,2.221987\n284.0741,2.224012\n284.0722,2.226313\n283.9046,2.226293\n283.8994,2.232684\n283.7093,2.234707\n283.7077,2.236752\n283.5386,2.239032\n283.5334,2.245424\n283.3647,2.247449\n283.3595,2.253841\n283.1719,2.253818\n283.1683,2.258164\n283.0018,2.258143\n282.9949,2.266580\n282.8286,2.266560\n282.8234,2.272951\n282.6364,2.272929\n282.6329,2.277275\n282.4670,2.277254\n282.4601,2.285691\n282.2944,2.285671\n282.2892,2.292062\n282.1030,2.292039\n282.0995,2.296386\n281.9342,2.296365\n281.9274,2.304802\n281.7623,2.304782\n281.7588,2.309128\n281.5733,2.309105\n281.5681,2.315497\n281.4034,2.315476\n281.3983,2.321868\n281.2338,2.321847\n281.2303,2.326194\n281.0439,2.328216\n281.0387,2.334608\n280.8747,2.334587\n280.8730,2.336632\n280.7073,2.338913\n280.7022,2.345305\n280.5369,2.347329\n280.5353,2.349375\n280.3495,2.351653\n280.3463,2.355743\n280.1812,2.358024\n280.1779,2.362115\n280.0148,2.362094\n280.0114,2.366440\n279.8263,2.368718\n279.8231,2.372809\n279.6586,2.375089\n279.6570,2.377135\n279.4929,2.379160\n279.4878,2.385551\n279.3053,2.385528\n279.3035,2.387829\n279.1398,2.389854\n279.1347,2.396246\n278.9729,2.396225\n278.9713,2.398271\n278.7876,2.400549\n278.7825,2.406940\n278.6211,2.406920\n278.6195,2.408965\n278.4566,2.410990\n278.4516,2.417382\n278.2704,2.417359\n278.2670,2.421705\n278.1045,2.423730\n278.1011,2.428076\n277.9405,2.428056\n277.9370,2.432402\n277.7549,2.434424\n277.7533,2.436470\n277.5913,2.438750\n277.5881,2.442841\n277.4262,2.445121\n277.4246,2.447167\n277.2432,2.449189\n277.2398,2.453535\n277.0785,2.455560\n277.0767,2.457861\n276.9156,2.459886\n276.9123,2.464232\n276.7315,2.466254\n276.7297,2.468555\n276.5706,2.468535\n276.5674,2.472626\n276.4068,2.474906\n276.4036,2.478997\n276.2251,2.478974\n276.2217,2.483320\n276.0616,2.485345\n276.0583,2.489691\n275.8984,2.491716\n275.8966,2.494017\n275.7187,2.493994\n275.7156,2.498085\n275.5576,2.498064\n275.5559,2.500365\n275.3966,2.502390\n275.3932,2.506736\n275.2341,2.508761\n275.2325,2.510807\n275.0555,2.510784\n275.0506,2.517175\n274.8934,2.517155\n274.8917,2.519456\n274.7331,2.521481\n274.7282,2.527872\n274.5519,2.527849\n274.5503,2.529894\n274.3937,2.529874\n274.3888,2.536266\n274.0534,2.540568\n274.0501,2.544915\n273.8941,2.544894\n273.8907,2.549241\n273.7349,2.549220\n273.7318,2.553311\n273.5550,2.555589\n273.5534,2.557634\n273.2394,2.561939\n273.2363,2.566030\n272.9037,2.570333\n272.9004,2.574679\n272.4127,2.581007\n272.4096,2.585098\n272.2537,2.587378\n272.2522,2.589423\n272.0790,2.589400\n272.0774,2.591446\n271.9237,2.591425\n271.9204,2.595772\n271.5910,2.600074\n271.5894,2.602120\n271.4347,2.604145\n271.4329,2.606446\n271.1049,2.610493\n271.1032,2.612794\n270.9490,2.614819\n270.9474,2.616864\n270.4667,2.623192\n270.4635,2.627538\n270.3115,2.627518\n270.3100,2.629563\n270.1392,2.629540\n270.1375,2.631841\n269.9860,2.631820\n269.9844,2.633866\n269.8315,2.635891\n269.8298,2.638192\n269.3530,2.644519\n269.3515,2.646564\n268.7246,2.655173\n268.7230,2.657218\n268.5543,2.657195\n268.5528,2.659240\n268.4030,2.659220\n268.4013,2.661521\n268.2517,2.661500\n268.2502,2.663546\n268.0805,2.665568\n268.0788,2.667869\n267.9296,2.667849\n267.7789,2.669873\n267.6114,2.669850\n267.6099,2.671896\n267.4595,2.674176\n267.4580,2.676222\n267.3094,2.676201\n267.3079,2.678247\n266.9927,2.678203\n266.9910,2.680504\n266.8429,2.680484\n266.8414,2.682529\n266.6736,2.684551\n266.6719,2.686852\n266.5242,2.686832\n266.5227,2.688877\n266.2093,2.688834\n266.2079,2.690879\n266.0607,2.690858\n266.0590,2.693159\n265.9120,2.693139\n265.9105,2.695184\n265.7438,2.697207\n265.5971,2.697186\n265.5954,2.699487\n265.1381,2.699423\n265.1366,2.701469\n264.9906,2.701448\n264.9891,2.703493\n264.8250,2.703470\n264.8234,2.705771\n264.6777,2.705751\n264.6762,2.707796\n264.2220,2.707732\n264.2206,2.709778\n263.7679,2.709714\n263.7663,2.712015\n263.6217,2.711994\n263.3123,2.716041\n263.0244,2.716001\n262.8611,2.718278\n260.9365,2.718002\n260.7967,2.715681\n260.4980,2.713592\n260.4966,2.715637\n260.3571,2.713572\n260.2001,2.711503\n260.0594,2.711483\n259.9205,2.709161\n259.4838,2.707052\n259.4824,2.709097\n259.0486,2.704943\n259.0473,2.706988\n258.9108,2.702622\n258.9092,2.704922\n258.7542,2.702599\n258.4789,2.698467\n258.0457,2.698403\n257.4647,2.689623\n257.3270,2.689603\n257.1908,2.687537\n257.0362,2.687514\n256.9019,2.683147\n256.9004,2.685448\n256.7662,2.681082\n256.7648,2.683127\n256.6135,2.679013\n256.4767,2.678993\n256.3416,2.676671\n256.1894,2.674603\n256.1880,2.676649\n255.7680,2.668148\n255.6335,2.666082\n255.6321,2.668127\n255.4993,2.663760\n255.4978,2.666061\n255.3494,2.659647\n255.3481,2.661692\n255.2140,2.659626\n254.9309,2.653191\n254.9295,2.655237\n254.3819,2.642369\n254.3806,2.644414\n253.8354,2.631547\n253.8340,2.633592\n253.4231,2.623046\n253.4217,2.625091\n253.2925,2.618679\n253.2897,2.623025\n253.1426,2.618656\n252.8820,2.610178\n252.8793,2.614269\n252.7340,2.607854\n252.7325,2.610155\n252.6026,2.605788\n252.6013,2.607834\n252.4714,2.603723\n252.4701,2.605768\n252.3253,2.599353\n252.3239,2.601399\n252.0650,2.592921\n252.0637,2.594966\n251.9193,2.588552\n251.9165,2.592898\n251.7875,2.588531\n251.6584,2.584420\n251.6571,2.586465\n251.5132,2.580051\n251.5119,2.582096\n251.1099,2.569249\n251.1071,2.573595\n250.8521,2.562816\n250.8507,2.565117\n250.7077,2.558703\n250.7064,2.560748\n250.4522,2.549969\n250.4495,2.554315\n250.0523,2.539167\n250.0495,2.543514\n249.9265,2.532755\n249.9237,2.537102\n249.7831,2.528642\n249.7805,2.532732\n249.6549,2.526320\n249.5255,2.526300\n249.3840,2.519885\n249.3813,2.524231\n249.2574,2.515774\n249.2548,2.519865\n249.1338,2.507061\n249.1298,2.513453\n248.9913,2.502947\n248.9901,2.504993\n248.8666,2.496535\n248.8640,2.500626\n248.7394,2.494214\n248.7379,2.496515\n248.5961,2.492146\n248.4690,2.490080\n248.4677,2.492125\n248.3434,2.485713\n248.3422,2.487758\n248.2020,2.481344\n248.2006,2.483645\n248.0781,2.474932\n248.0753,2.479278\n247.8118,2.466451\n247.8091,2.470797\n247.6869,2.462084\n247.6855,2.464385\n247.5620,2.457973\n247.5608,2.460019\n247.4215,2.453604\n247.4202,2.455649\n247.2983,2.447192\n247.2958,2.451282\n247.0352,2.436411\n247.0312,2.442802\n246.7870,2.427933\n246.7844,2.432023\n246.6473,2.423563\n246.6461,2.425609\n246.5249,2.417151\n246.5222,2.421498\n246.2634,2.406370\n246.2594,2.412762\n246.1399,2.402259\n246.1387,2.404304\n246.0167,2.397892\n246.0141,2.402238\n245.8792,2.391477\n245.8766,2.395824\n245.7549,2.389412\n245.7536,2.391457\n245.6321,2.385045\n245.6308,2.387090\n245.5094,2.380678\n245.5080,2.382979\n245.3725,2.374264\n245.3698,2.378610\n245.2499,2.370152\n245.2486,2.372198\n245.1288,2.363740\n245.1263,2.367831\n244.8690,2.355004\n244.8664,2.359351\n244.7471,2.350638\n244.7457,2.352938\n244.6110,2.344223\n244.6084,2.348569\n244.4892,2.340112\n244.4880,2.342157\n244.3703,2.331399\n244.3664,2.337790\n244.2320,2.329331\n244.2307,2.331376\n244.1119,2.322918\n244.1081,2.329310\n243.9894,2.320853\n243.9882,2.322898\n243.8555,2.312137\n243.8517,2.318529\n243.7345,2.308026\n243.7320,2.312117\n243.6149,2.301614\n243.6110,2.308006\n243.4788,2.297245\n243.4762,2.301591\n243.3595,2.290833\n243.3557,2.297224\n243.2391,2.286466\n243.2365,2.290812\n243.1047,2.280051\n243.1008,2.286443\n242.9857,2.273639\n242.9819,2.280031\n242.8655,2.269528\n242.8643,2.271573\n242.7303,2.265159\n242.7277,2.269505\n242.6105,2.260792\n242.6093,2.262837\n242.4920,2.254380\n242.4895,2.258726\n242.3572,2.250010\n242.3559,2.252311\n242.2390,2.243598\n242.2364,2.247945\n242.1196,2.239487\n242.1183,2.241533\n241.9864,2.233073\n241.9826,2.239464\n241.8673,2.228706\n241.8661,2.230751\n241.7496,2.222294\n241.7470,2.226640\n241.6156,2.217925\n241.6142,2.220226\n241.4981,2.211512\n241.4955,2.215859\n241.3793,2.207401\n241.3781,2.209447\n241.2621,2.200989\n241.2597,2.205080\n241.1286,2.196620\n241.1261,2.200966\n241.0116,2.190208\n241.0078,2.196599\n240.8935,2.185841\n240.8909,2.190187\n240.7617,2.179427\n240.7579,2.185818\n240.6450,2.173015\n240.6412,2.179406\n240.5273,2.168648\n240.5247,2.172994\n240.3958,2.162233\n240.3921,2.168625\n240.2782,2.158122\n240.2758,2.162213\n240.1620,2.151710\n240.1582,2.158102\n240.0297,2.147341\n240.0285,2.149386\n239.9138,2.140929\n239.9100,2.147320\n239.7967,2.136562\n239.7954,2.138863\n239.6661,2.130147\n239.6636,2.134493\n239.5491,2.126036\n239.5480,2.128082\n239.4337,2.119624\n239.4313,2.123714\n239.3034,2.113209\n239.3010,2.117300\n239.1870,2.108843\n239.1844,2.113189\n239.0730,2.100385\n239.0693,2.106777\n238.9420,2.096016\n238.9408,2.098061\n238.8271,2.089604\n238.8234,2.095995\n238.7111,2.085237\n238.7098,2.087538\n238.5816,2.078822\n238.5779,2.085214\n238.4659,2.074456\n238.4646,2.076757\n238.3514,2.068044\n238.3489,2.072390\n238.2235,2.059584\n238.2199,2.065975\n237.9941,2.048805\n237.9904,2.055196\n237.7490,2.040325\n237.7465,2.044671\n237.6341,2.035958\n237.6327,2.038259\n237.5069,2.027498\n237.5033,2.033890\n237.3909,2.025432\n237.3897,2.027477\n237.2775,2.019020\n237.2752,2.023110\n237.1630,2.014653\n237.1619,2.016698\n237.0352,2.008239\n237.0316,2.014630\n236.8092,1.995414\n236.8044,2.003851\n236.6793,1.993346\n236.6781,1.995391\n236.5654,1.988979\n236.5629,1.993326\n236.4541,1.980266\n236.4504,1.986658\n236.3257,1.976153\n236.3246,1.978198\n236.2146,1.967439\n236.2110,1.973831\n235.9744,1.956914\n235.9708,1.963306\n235.8612,1.952547\n235.8600,1.954592\n235.7492,1.946135\n235.7468,1.950481\n235.6218,1.941766\n235.6205,1.944066\n235.5100,1.935354\n235.5076,1.939700\n235.3984,1.928941\n235.3960,1.933288\n235.2712,1.924828\n235.2701,1.926873\n235.1598,1.918416\n235.1575,1.922506\n235.0474,1.914049\n235.0462,1.916094\n234.9219,1.907634\n234.9194,1.911981\n234.8096,1.903267\n234.8084,1.905569\n234.6987,1.896856\n234.6962,1.901202\n234.5724,1.892486\n234.5711,1.894787\n234.4616,1.886074\n234.4592,1.890420\n234.3497,1.881963\n234.3486,1.884009\n234.2249,1.875549\n234.2227,1.879639\n234.1134,1.871182\n234.1123,1.873227\n234.0031,1.864770\n234.0007,1.869116\n233.8775,1.860400\n233.8763,1.862701\n233.7675,1.853988\n233.7650,1.858334\n233.6562,1.849877\n233.6551,1.851923\n233.5322,1.843463\n233.5299,1.847553\n233.3105,1.834729\n233.3081,1.839076\n233.1997,1.830618\n233.1985,1.832663\n233.0761,1.824203\n233.0738,1.828294\n232.9656,1.819837\n232.9645,1.821882\n232.8564,1.813425\n232.8540,1.817771\n232.6219,1.804689\n232.6196,1.809035\n232.5118,1.800578\n232.5107,1.802623\n232.3889,1.794163\n232.3867,1.798253\n232.1706,1.783384\n232.1671,1.789775\n231.9373,1.774904\n231.9351,1.778994\n231.8280,1.770537\n231.8268,1.772582\n231.7058,1.764122\n231.7035,1.768469\n231.4875,1.755644\n231.4852,1.759735\n231.3646,1.751275\n231.3635,1.753320\n231.2558,1.746908\n231.2545,1.749209\n231.1469,1.742797\n231.1458,1.744843\n231.0244,1.738428\n231.0233,1.740473\n230.9170,1.732016\n230.9146,1.736362\n230.6863,1.723535\n230.6840,1.727626\n230.5781,1.719169\n230.5769,1.721214\n230.4711,1.712757\n230.4687,1.717103\n230.3493,1.708387\n230.3482,1.710432\n230.2425,1.701975\n230.2401,1.706322\n230.0131,1.693495\n230.0109,1.697585\n229.9055,1.689128\n229.9032,1.693475\n229.7981,1.684761\n229.7957,1.689107\n229.6768,1.680647\n229.6757,1.682693\n229.5696,1.676281\n229.5685,1.678326\n229.4635,1.669869\n229.4612,1.674215\n229.2357,1.661389\n229.2335,1.665479\n229.0221,1.652655\n229.0198,1.657001\n228.9017,1.648541\n228.9006,1.650586\n228.7941,1.646219\n228.7929,1.648521\n228.6887,1.639808\n228.6864,1.644154\n228.4624,1.631327\n228.4601,1.635674\n228.3563,1.626960\n228.3551,1.629262\n228.2367,1.622591\n228.2344,1.626937\n228.1307,1.618480\n228.1296,1.620525\n227.9057,1.609744\n227.9034,1.614090\n227.6944,1.601267\n227.6921,1.605612\n227.5755,1.596897\n227.5743,1.599198\n227.3649,1.588420\n227.3626,1.592765\n227.1412,1.579939\n227.1390,1.584029\n227.0363,1.575572\n227.0352,1.577617\n226.9169,1.573504\n226.9158,1.575549\n226.8133,1.567091\n226.8111,1.571182\n226.5908,1.558356\n226.5885,1.562702\n226.3809,1.551923\n226.3797,1.554224\n226.2633,1.547809\n226.2622,1.549855\n226.1592,1.543442\n226.1581,1.545488\n226.0562,1.537030\n226.0529,1.543422\n225.9379,1.534962\n225.9368,1.537008\n225.8330,1.532641\n225.8318,1.534942\n225.7304,1.526228\n225.7281,1.530575\n225.6256,1.524162\n225.6245,1.526209\n225.5089,1.519794\n225.5066,1.524140\n225.4054,1.515427\n225.4032,1.519773\n225.3010,1.513361\n225.2999,1.515406\n225.1856,1.506946\n225.1834,1.511292\n225.0825,1.502580\n225.0813,1.504881\n224.9783,1.500514\n224.9773,1.502560\n224.8623,1.496145\n224.8600,1.500490\n224.7583,1.494079\n224.6555,1.489712\n224.6533,1.494059\n224.5397,1.485598\n224.5376,1.489689\n224.2182,1.474796\n224.2160,1.479143\n224.1148,1.472730\n224.1137,1.474776\n224.0116,1.470409\n224.0104,1.472710\n223.8976,1.463994\n223.8954,1.468341\n223.7945,1.461929\n223.7934,1.463974\n223.5767,1.455494\n223.5757,1.457540\n223.3724,1.449062\n223.3714,1.451106\n223.2580,1.444693\n223.2568,1.446994\n222.9390,1.436191\n222.9379,1.438237\n222.8379,1.431825\n222.8369,1.433869\n222.7358,1.429759\n222.7347,1.431804\n222.6210,1.427434\n222.6198,1.429736\n222.5201,1.423323\n222.5191,1.425370\n222.2033,1.414567\n222.2022,1.416868\n221.8873,1.406066\n221.8863,1.408111\n221.5722,1.397565\n221.5712,1.399611\n221.3715,1.391133\n221.3705,1.393178\n221.2570,1.391110\n221.1564,1.388788\n221.0558,1.386722\n221.0548,1.388767\n220.8433,1.380287\n220.8423,1.382332\n220.6292,1.378198\n220.6281,1.380244\n220.5292,1.375878\n220.4291,1.373811\n220.4281,1.375857\n220.3156,1.373789\n220.1161,1.369401\n220.0029,1.369379\n219.9034,1.367313\n219.6900,1.367268\n219.5907,1.365203\n219.4917,1.362882\n219.4905,1.365183\n219.3801,1.360813\n219.3791,1.362859\n219.0679,1.360749\n218.9692,1.358685\n217.3249,1.358344\n217.2258,1.360368\n217.0176,1.360324\n216.8077,1.364628\n216.7100,1.364607\n216.6115,1.366632\n216.5018,1.366610\n216.4035,1.368635\n216.3062,1.368614\n216.1957,1.370892\n216.0986,1.370872\n216.0977,1.372918\n216.0007,1.372895\n215.9997,1.374941\n215.8906,1.374919\n215.8896,1.377219\n215.7927,1.377199\n215.5853,1.381247\n215.5842,1.383548\n215.4877,1.383526\n215.4867,1.385572\n215.3902,1.385551\n215.3893,1.387596\n215.2809,1.387573\n215.2798,1.389875\n215.1835,1.389855\n215.1825,1.391900\n215.0863,1.391879\n215.0854,1.393924\n214.9893,1.393905\n214.9882,1.396205\n214.7823,1.400253\n214.7812,1.402554\n214.3825,1.410905\n214.3805,1.415252\n214.0794,1.421579\n214.0775,1.425671\n213.8733,1.429973\n213.8723,1.432018\n213.7762,1.434299\n213.7753,1.436344\n213.5716,1.440648\n213.5706,1.442693\n213.4748,1.444973\n213.4739,1.447018\n213.2708,1.451321\n213.2689,1.455411\n213.0662,1.459715\n213.0642,1.464062\n212.9689,1.466086\n212.9680,1.468132\n212.7659,1.472435\n212.7639,1.476781\n212.6689,1.478806\n212.6679,1.480850\n212.5729,1.483131\n212.5700,1.489523\n212.4634,1.491545\n212.4614,1.495891\n212.3667,1.497916\n##END=\n'