b'##TITLE=Selenophene, 2-methyl\n##JCAMP-DX=4.24\n##DATA TYPE=UV/VIS SPECTRUM\n##ORIGIN=INSTITUTE OF ENERGY PROBLEMS OF CHEMICAL PHYSICS, RAS\n##OWNER=INEP CP RAS, NIST OSRD\nCollection (C) 2007 copyright by the U.S. Secretary of Commerce\non behalf of the United States of America. All rights reserved.\n##CAS REGISTRY NO=7559-42-4\n##MOLFORM=C5H6Se\n##SOURCE REFERENCE=RAS UV No. 12963\n##$NIST SQUIB=1959CHU/IUR25\n##$NIST SOURCE=TYUGLMTE\n##SPECTROMETER/DATA SYSTEM=Spectrophotometer SF-4\n##XUNITS=Wavelength (nm)\n##YUNITS=Logarithm epsilon\n##XFACTOR=1.0\n##YFACTOR=1.0\n##FIRSTX=226.47\n##LASTX=276.77\n##FIRSTY=3.751\n##MAXX=276.77\n##MINX=226.47\n##MAXY=3.852\n##MINY=3.329\n##NPOINTS=55\n##$REF AUTHOR=Churnaevskii, N.A.; Iurev, I.K.\n##$REF JOURNAL=Optika i Spektrokopiya (English translation)\n##$REF VOLUME=6\n##$REF PAGE=25\n##$REF DATE=1959\n##XYPOINTS=(XY..XY)\n226.47,3.751\n227.30,3.751\n228.14,3.751\n228.98,3.751\n229.83,3.751\n230.69,3.755\n231.55,3.762\n232.42,3.774\n233.30,3.777\n234.18,3.788\n235.07,3.795\n235.87,3.806\n236.77,3.813\n237.68,3.823\n238.59,3.826\n239.52,3.829\n240.45,3.829\n241.39,3.829\n242.33,3.833\n243.28,3.833\n244.24,3.836\n245.21,3.839\n246.19,3.839\n247.17,3.842\n248.16,3.845\n249.16,3.845\n250.17,3.845\n251.18,3.849\n252.21,3.849\n253.24,3.849\n254.28,3.852\n255.33,3.849\n256.39,3.842\n257.33,3.833\n258.29,3.819\n259.25,3.809\n260.10,3.788\n260.83,3.766\n261.69,3.747\n262.55,3.723\n263.29,3.697\n264.04,3.665\n264.80,3.635\n265.55,3.598\n266.32,3.557\n267.08,3.518\n267.85,3.476\n268.76,3.430\n269.80,3.405\n270.85,3.378\n272.04,3.368\n273.11,3.339\n274.32,3.339\n275.54,3.329\n276.77,3.329\n##END=\n'