b"##TITLE=Methane, nitro-\n##JCAMP-DX=4.24\n##DATA TYPE=UV/VIS SPECTRUM\n##ORIGIN=INSTITUTE OF ENERGY PROBLEMS OF CHEMICAL PHYSICS, RAS\n##OWNER=INEP CP RAS, NIST OSRD\nCollection (C) 2007 copyright by the U.S. Secretary of Commerce\non behalf of the United States of America. All rights reserved.\n##CAS REGISTRY NO=75-52-5\n##MOLFORM=CH3NO2\n##MP=-28.5\n##BP=101.1\n##SOURCE REFERENCE=RAS UV No. 2\n##$NIST SQUIB=1950GRA158-166\n##$NIST SOURCE=TSGMTE\n##SPECTROMETER/DATA SYSTEM=n.i.g.\n##XUNITS=Wavelength (nm)\n##YUNITS=Logarithm epsilon\n##XFACTOR=1.000000\n##YFACTOR=1.000000\n##FIRSTX=341.0043\n##LASTX=232.3857\n##FIRSTY=0.090963\n##MAXX=341.004\n##MINX=232.386\n##MAXY=1.93697\n##MINY=0.090963\n##NPOINTS=134\n##$REF AUTHOR=Grammaticakis, P.\n##$REF TITLE=Contribution a l'etude de l'absorption dans l'ultraviolet moyen des anilines ortho-substituees. III. Orthonitro- et orthocarboxy- anilines N-substituees\n##$REF JOURNAL=Bull. Soc. Chim. Fr.\n##$REF VOLUME=17\n##$REF PAGE=158-166\n##$REF DATE=1950\n##XYPOINTS=(XY..XY)\n341.0043,0.090963\n338.4410,0.128755\n335.8993,0.166637\n333.3874,0.204771\n333.3874,0.204771\n333.1566,0.211708\n332.9098,0.218667\n332.6553,0.225619\n332.6553,0.225619\n331.0306,0.246031\n330.3475,0.256742\n330.0104,0.266866\n330.0104,0.266866\n328.0045,0.300769\n326.0223,0.334695\n324.0627,0.368696\n322.1247,0.402708\n320.2074,0.436751\n318.3098,0.470822\n316.4311,0.504892\n316.4311,0.504892\n315.9692,0.516839\n315.5085,0.528891\n315.0492,0.541167\n315.0492,0.541167\n314.5489,0.547122\n314.0358,0.553094\n313.5170,0.559056\n313.5170,0.559056\n309.0751,0.643255\n306.6979,0.688562\n305.4673,0.710473\n304.5362,0.724522\n304.5362,0.724522\n304.4965,0.728646\n304.4433,0.732988\n304.3832,0.737439\n304.3832,0.737439\n302.5405,0.767015\n301.0652,0.792504\n299.3609,0.820425\n299.3609,0.820425\n299.2711,0.824549\n299.1748,0.828892\n299.0654,0.833345\n299.0654,0.833345\n298.8589,0.833988\n298.6527,0.834853\n298.4468,0.835830\n298.4468,0.835830\n294.7899,0.900482\n292.4761,0.940492\n291.1709,0.963074\n290.5757,0.975459\n290.5757,0.975459\n288.1978,1.009765\n285.8524,1.044179\n283.5331,1.078816\n283.5331,1.078816\n282.2643,1.092380\n281.0009,1.106164\n279.7374,1.120060\n279.7374,1.120060\n275.5287,1.153315\n273.8822,1.168129\n273.3030,1.177205\n273.3030,1.177205\n271.1884,1.182449\n269.9855,1.184382\n268.6503,1.184657\n268.6503,1.184657\n267.7481,1.181529\n266.8520,1.178180\n265.9619,1.174720\n265.9619,1.174720\n265.2402,1.167763\n264.5223,1.160805\n263.8083,1.153848\n263.8083,1.153848\n261.9340,1.118496\n260.5384,1.088993\n258.4306,1.040056\n258.4306,1.040056\n257.2093,0.999991\n256.6501,0.983888\n256.2666,0.977943\n256.2666,0.977943\n254.4524,0.935064\n252.6544,0.891961\n250.8770,0.848749\n250.8770,0.848749\n250.2370,0.842678\n249.8197,0.837266\n249.2671,0.827880\n249.2671,0.827880\n247.2533,0.831134\n246.2819,0.835056\n245.6895,0.838314\n245.6895,0.838314\n244.6717,0.871754\n243.6537,0.905413\n242.6398,0.939185\n242.6398,0.939185\n241.7464,0.985341\n241.1876,1.018913\n240.8269,1.037574\n240.8269,1.037574\n240.5691,1.067205\n240.0665,1.113619\n239.1541,1.205526\n239.1541,1.205526\n239.0968,1.226048\n239.0353,1.246789\n238.9655,1.267641\n238.9655,1.267641\n238.5663,1.305646\n238.0596,1.364474\n237.5900,1.419483\n237.2998,1.446029\n237.2998,1.446029\n236.8998,1.500327\n236.5720,1.539814\n236.2540,1.574362\n235.8839,1.613848\n235.4009,1.668146\n235.4009,1.668146\n235.1742,1.683367\n234.8912,1.709407\n234.5444,1.733241\n234.5444,1.733241\n233.7674,1.811892\n233.2848,1.859330\n232.8914,1.894658\n232.3857,1.936972\n##END=\n"