b'##TITLE=2-Methyl-2-propanethiol\n##JCAMP-DX=4.24\n##DATA TYPE=UV/VIS SPECTRUM\n##ORIGIN=INSTITUTE OF ENERGY PROBLEMS OF CHEMICAL PHYSICS, RAS\n##OWNER=INEP CP RAS, NIST OSRD\nCollection (C) 2007 copyright by the U.S. Secretary of Commerce\non behalf of the United States of America. All rights reserved.\n##CAS REGISTRY NO=75-66-1\n##MOLFORM=C4H10S\n##MP=-0.5\n##BP=64.3\n##SOURCE REFERENCE=RAS UV No. 852\n##$NIST SQUIB=1954HAI/HEL270-278\n##$NIST SOURCE=TSGMTE\n##SPECTROMETER/DATA SYSTEM=Beckman DU\n##XUNITS=Wavelength (nm)\n##YUNITS=Logarithm epsilon\n##XFACTOR=1.000000\n##YFACTOR=1.000000\n##FIRSTX=211.7285\n##LASTX=277.6160\n##FIRSTY=2.50799\n##MAXX=277.616\n##MINX=211.729\n##MAXY=2.50799\n##MINY=0.050998\n##NPOINTS=99\n##$REF AUTHOR=Haines, W.E.; Helm, R.V.; Bailey, c.W.; Ball, J.S.\n##$REF TITLE=Purification and properties of ten organic sulfur compounds\n##$REF JOURNAL=J. Phys. Chem.\n##$REF VOLUME=58\n##$REF PAGE=270-278\n##$REF DATE=1954\n##XYPOINTS=(XY..XY)\n211.7285,2.507988\n212.2184,2.475724\n212.6965,2.440173\n213.1949,2.402779\n213.7453,2.364987\n214.3798,2.328241\n215.1302,2.293988\n216.0286,2.263671\n217.1067,2.238736\n217.1067,2.238736\n217.9461,2.233341\n218.4741,2.227428\n218.8414,2.223484\n219.0265,2.221372\n220.4349,2.224246\n222.1025,2.229500\n225.1541,2.237740\n226.7427,2.250910\n228.6790,2.249841\n230.5297,2.247882\n232.3925,2.243338\n234.3652,2.234511\n234.3652,2.234511\n236.2497,2.206276\n238.1380,2.177948\n240.0337,2.149432\n240.0337,2.149432\n241.4480,2.120742\n242.8670,2.092012\n244.2892,2.063203\n245.7129,2.034277\n245.7129,2.034277\n246.6972,2.009030\n247.8122,1.980368\n248.9765,1.949304\n250.1090,1.916848\n251.1284,1.884012\n251.9534,1.851805\n252.5028,1.821242\n252.5028,1.821242\n254.4732,1.740500\n255.7086,1.688943\n256.3938,1.659949\n256.7137,1.646900\n256.8533,1.643177\n256.8533,1.643177\n257.3926,1.605919\n258.1452,1.523970\n258.1868,1.569093\n258.3988,1.523398\n258.6561,1.522639\n258.8379,1.528480\n258.9209,1.521786\n258.9209,1.521786\n259.6418,1.479913\n260.3865,1.437958\n261.2040,1.396152\n262.1433,1.354721\n262.1433,1.354721\n262.4889,1.320999\n262.9364,1.290420\n263.3414,1.272285\n263.3414,1.272285\n263.8247,1.238641\n264.3030,1.204923\n264.7767,1.171132\n265.2456,1.137272\n265.7100,1.103342\n266.1698,1.069350\n266.6253,1.035294\n267.0765,1.001175\n267.5234,0.967000\n267.9662,0.932773\n268.4050,0.898489\n268.8399,0.864155\n269.2709,0.829773\n269.6981,0.795345\n270.1217,0.760875\n270.5417,0.726360\n270.9583,0.691806\n271.3714,0.657218\n271.7813,0.622597\n272.1880,0.587947\n272.5916,0.553264\n272.9921,0.518553\n273.3898,0.483830\n273.7846,0.449077\n274.1767,0.414305\n274.5661,0.379505\n274.5661,0.379505\n274.8322,0.343487\n275.1654,0.307368\n275.5447,0.271168\n275.9492,0.234871\n276.3580,0.198410\n276.7500,0.161817\n277.1043,0.125058\n277.3999,0.088136\n277.6160,0.050998\n##END=\n'