b'##TITLE=Methane, bromotrifluoro-\n##JCAMP-DX=4.24\n##DATA TYPE=UV/VIS SPECTRUM\n##ORIGIN=INSTITUTE OF ENERGY PROBLEMS OF CHEMICAL PHYSICS, RAS\n##OWNER=INEP CP RAS, NIST OSRD\nCollection (C) 2007 copyright by the U.S. Secretary of Commerce\non behalf of the United States of America. All rights reserved.\n##CAS REGISTRY NO=75-63-8\n##MOLFORM=CBrF3\n##MP=-172\n##BP=-57.8\n##SOURCE REFERENCE=RAS UV No. 2830\n##$NIST SQUIB=1951DAV467-468\n##$NIST SOURCE=TSGMTE\n##SPECTROMETER/DATA SYSTEM=Beckman DU\n##XUNITS=Wavelength (nm)\n##YUNITS=Logarithm epsilon\n##XFACTOR=1.000000\n##YFACTOR=1.000000\n##FIRSTX=205.5125\n##LASTX=256.8290\n##FIRSTY=1.42442\n##MAXX=256.829\n##MINX=205.512\n##MAXY=1.5065\n##MINY=-0.940437\n##NPOINTS=65\n##$REF AUTHOR=Davidson, N.\n##$REF TITLE=The ultraviolet absorption spectra and the refractive indices of some fluorobromomethanes\n##$REF JOURNAL=J. Am. Chem. Soc.\n##$REF VOLUME=73\n##$REF PAGE=467-468\n##$REF DATE=1951\n##XYPOINTS=(XY..XY)\n205.5125,1.424418\n205.9067,1.448754\n208.3553,1.501909\n208.4510,1.503439\n208.5508,1.504968\n208.6590,1.506496\n210.7140,1.502676\n211.0234,1.501648\n211.3411,1.500534\n211.3411,1.500534\n211.7609,1.495222\n212.1848,1.489909\n212.9033,1.478146\n213.0372,1.471774\n213.1711,1.465572\n213.1711,1.465572\n213.4943,1.460268\n217.8149,1.362136\n218.8316,1.336714\n222.2385,1.227699\n222.7318,1.208911\n223.3221,1.190978\n223.3221,1.190978\n223.5495,1.180828\n223.7129,1.175500\n223.9522,1.170435\n223.9522,1.170435\n224.2074,1.152539\n224.4709,1.134642\n225.5099,1.088094\n228.8312,0.933113\n229.5074,0.898204\n231.4358,0.808265\n233.9600,0.672550\n234.5155,0.640948\n236.2640,0.536028\n237.7722,0.449463\n237.7722,0.449463\n238.1748,0.423180\n238.5774,0.396914\n241.7608,0.183099\n242.2399,0.153876\n242.7190,0.124635\n243.1980,0.095344\n243.6771,0.066065\n246.5362,-0.117305\n247.0155,-0.152798\n248.1333,-0.234331\n248.4522,-0.254223\n248.4522,-0.254223\n249.1894,-0.306801\n249.6012,-0.337998\n249.8372,-0.360016\n250.9958,-0.443215\n252.7535,-0.593630\n252.9270,-0.606776\n252.9270,-0.606776\n253.0451,-0.619970\n253.2478,-0.638083\n253.5401,-0.662541\n253.9269,-0.694649\n254.4129,-0.735654\n255.9299,-0.858550\n256.3364,-0.892790\n256.8290,-0.940437\n##END=\n'