b'##TITLE=Silane, tetramethyl-\n##JCAMP-DX=4.24\n##DATA TYPE=UV/VIS SPECTRUM\n##ORIGIN=INSTITUTE OF ENERGY PROBLEMS OF CHEMICAL PHYSICS, RAS\n##OWNER=INEP CP RAS, NIST OSRD\nCollection (C) 2007 copyright by the U.S. Secretary of Commerce\non behalf of the United States of America. All rights reserved.\n##CAS REGISTRY NO=75-76-3\n##MOLFORM=C4H12Si\n##SOURCE REFERENCE=RAS UV No. 18490\n##$NIST SQUIB=1980BAS/56\n##$NIST SOURCE=TYUGLMTE\n##SPECTROMETER/DATA SYSTEM=unknown\n##XUNITS=Wavelength (nm)\n##YUNITS=Logarithm epsilon\n##XFACTOR=1.0\n##YFACTOR=1.0\n##FIRSTX=141.16\n##LASTX=181.2\n##FIRSTY=4.084\n##MAXX=181.2\n##MINX=141.16\n##MAXY=4.084\n##MINY=2.677\n##NPOINTS=57\n##$REF AUTHOR=Bastian, E.; et al.\n##$REF JOURNAL=Ber. Bunsen Gesell. Phys. Chem.\n##$REF VOLUME=84\n##$REF PAGE=56\n##$REF DATE=1980\n##XYPOINTS=(XY..XY)\n141.16,4.084\n141.80,4.070\n142.32,4.056\n142.85,4.042\n143.49,4.027\n144.01,4.011\n144.65,3.995\n145.28,3.981\n145.81,3.964\n146.44,3.946\n147.08,3.930\n147.71,3.913\n148.35,3.893\n148.98,3.872\n149.72,3.853\n150.46,3.833\n151.09,3.812\n151.73,3.790\n152.47,3.767\n153.21,3.747\n154.05,3.730\n155.00,3.721\n155.95,3.730\n156.80,3.743\n157.54,3.763\n158.28,3.783\n159.02,3.801\n159.75,3.823\n160.49,3.840\n161.34,3.856\n162.18,3.869\n163.14,3.878\n164.09,3.881\n165.04,3.875\n165.88,3.862\n166.62,3.846\n167.25,3.830\n168.03,3.808\n168.73,3.783\n169.37,3.759\n170.00,3.730\n170.50,3.704\n171.16,3.670\n171.80,3.634\n172.33,3.595\n172.96,3.552\n173.53,3.505\n174.12,3.458\n174.80,3.404\n175.50,3.338\n176.24,3.269\n176.97,3.187\n177.71,3.105\n178.56,3.003\n179.40,2.900\n180.36,2.776\n181.20,2.677\n##END=\n'