b'##TITLE=1-Propanol, 2-methyl-2-nitro-\n##JCAMP-DX=4.24\n##DATA TYPE=UV/VIS SPECTRUM\n##ORIGIN=INSTITUTE OF ENERGY PROBLEMS OF CHEMICAL PHYSICS, RAS\n##OWNER=INEP CP RAS, NIST OSRD\nCollection (C) 2007 copyright by the U.S. Secretary of Commerce\non behalf of the United States of America. All rights reserved.\n##CAS REGISTRY NO=76-39-1\n##MOLFORM=C4H9NO3\n##SOURCE REFERENCE=RAS UV No. 17689\n##$NIST SQUIB=1977LIP/URB2504\n##$NIST SOURCE=TYUGLMTE\n##SPECTROMETER/DATA SYSTEM=Zeiss VSU-2P\n##XUNITS=Wavelength (nm)\n##YUNITS=Logarithm epsilon\n##XFACTOR=1.0\n##YFACTOR=1.0\n##FIRSTX=253.51\n##LASTX=333.25\n##FIRSTY=0.914\n##MAXX=333.25\n##MINX=253.51\n##MAXY=1.329\n##MINY=0.525\n##NPOINTS=60\n##$REF AUTHOR=Lipczynska-Kochany, E.; Urbanski, T.\n##$REF JOURNAL=Can. J. Chem.\n##$REF VOLUME=55\n##$REF PAGE=2504\n##$REF DATE=1977\n##XYPOINTS=(XY..XY)\n253.51,0.914\n254.63,0.942\n255.76,0.969\n256.89,0.994\n258.01,1.022\n258.95,1.052\n259.89,1.076\n260.83,1.103\n261.76,1.128\n262.70,1.148\n263.83,1.168\n264.95,1.187\n266.64,1.212\n268.71,1.239\n269.83,1.253\n271.14,1.266\n272.46,1.279\n273.56,1.288\n275.08,1.300\n277.52,1.312\n279.02,1.319\n280.53,1.325\n282.21,1.327\n283.90,1.329\n285.59,1.325\n286.90,1.316\n288.22,1.306\n289.72,1.298\n291.22,1.287\n292.53,1.277\n293.66,1.264\n294.78,1.250\n295.72,1.234\n296.47,1.215\n297.41,1.197\n298.16,1.176\n299.10,1.154\n300.23,1.134\n301.35,1.115\n302.52,1.095\n303.98,1.070\n305.37,1.046\n306.79,1.022\n308.11,1.003\n309.28,0.981\n310.73,0.960\n312.23,0.938\n313.72,0.914\n315.23,0.888\n316.55,0.861\n318.05,0.832\n319.36,0.802\n320.86,0.768\n322.55,0.732\n324.05,0.701\n325.55,0.677\n327.05,0.650\n328.93,0.612\n331.42,0.560\n333.25,0.525\n##END=\n'