b'##TITLE=Thiophene, 2-(chloromethyl)-\n##JCAMP-DX=4.24\n##DATA TYPE=UV/VIS SPECTRUM\n##ORIGIN=INSTITUTE OF ENERGY PROBLEMS OF CHEMICAL PHYSICS, RAS\n##OWNER=INEP CP RAS, NIST OSRD\nCollection (C) 2007 copyright by the U.S. Secretary of Commerce\non behalf of the United States of America. All rights reserved.\n##CAS REGISTRY NO=765-50-4\n##MOLFORM=C5H5ClS\n##SOURCE REFERENCE=RAS UV No. 10783\n##$NIST SQUIB=1949JAC/2301\n##$NIST SOURCE=TYUGLMTE\n##SPECTROMETER/DATA SYSTEM=n.i.g.\n##XUNITS=Wavelength (nm)\n##YUNITS=Logarithm epsilon\n##XFACTOR=1.0\n##YFACTOR=1.0\n##FIRSTX=212.72\n##LASTX=254.13\n##FIRSTY=3.506\n##MAXX=254.13\n##MINX=212.72\n##MAXY=3.896\n##MINY=2.291\n##NPOINTS=44\n##$REF AUTHOR=Jackman, M.; et al.\n##$REF JOURNAL=J. Am. Chem. Soc.\n##$REF VOLUME=71\n##$REF PAGE=2301\n##$REF DATE=1949\n##XYPOINTS=(XY..XY)\n212.72,3.506\n213.04,3.511\n213.37,3.517\n213.70,3.524\n214.02,3.530\n214.67,3.546\n215.65,3.598\n216.63,3.613\n217.61,3.643\n218.59,3.674\n219.57,3.691\n220.54,3.719\n221.52,3.743\n222.50,3.754\n223.48,3.779\n224.46,3.785\n225.43,3.803\n227.39,3.846\n228.37,3.861\n229.35,3.868\n230.33,3.875\n231.30,3.882\n232.28,3.890\n234.24,3.896\n235.22,3.895\n236.20,3.895\n237.17,3.894\n239.13,3.886\n240.11,3.869\n241.09,3.859\n242.07,3.848\n243.04,3.834\n244.02,3.823\n245.00,3.806\n245.98,3.784\n246.96,3.754\n247.93,3.719\n248.91,3.670\n249.89,3.613\n250.87,3.552\n251.85,3.448\n252.83,3.316\n253.80,3.098\n254.13,2.291\n##END=\n'