b'##TITLE=2,4-Imidazolidinedione, 5,5-dimethyl-\n##JCAMP-DX=4.24\n##DATA TYPE=UV/VIS SPECTRUM\n##ORIGIN=INSTITUTE OF ENERGY PROBLEMS OF CHEMICAL PHYSICS, RAS\n##OWNER=INEP CP RAS, NIST OSRD\nCollection (C) 2007 copyright by the U.S. Secretary of Commerce\non behalf of the United States of America. All rights reserved.\n##CAS REGISTRY NO=77-71-4\n##MOLFORM=C5H8N2O2\n##MP=291\n##SOURCE REFERENCE=RAS UV No. 19140\n##$NIST SQUIB=1967LAN311\n##$NIST SOURCE=TYUGLMTE\n##SPECTROMETER/DATA SYSTEM=Spektromom 201\n##XUNITS=Wavelength (nm)\n##YUNITS=Logarithm epsilon\n##XFACTOR=1.0\n##YFACTOR=1.0\n##FIRSTX=207.81\n##LASTX=259.17\n##FIRSTY=3.56\n##MAXX=259.17\n##MINX=207.81\n##MAXY=3.56\n##MINY=1.079\n##NPOINTS=92\n##$REF AUTHOR=Lang (editor), L.\n##$REF JOURNAL=Absorption Spectra in the Ultraviolet and Visible Region\n##$REF VOLUME=8\n##$REF PAGE=311\n##$REF DATE=1967\n##XYPOINTS=(XY..XY)\n207.81,3.560\n209.09,3.543\n210.21,3.523\n211.16,3.503\n212.12,3.482\n212.92,3.459\n213.72,3.432\n214.35,3.405\n214.98,3.380\n215.52,3.357\n216.09,3.332\n216.63,3.303\n217.22,3.269\n217.70,3.239\n218.18,3.212\n218.66,3.185\n219.14,3.155\n219.62,3.127\n220.19,3.097\n220.73,3.070\n221.23,3.044\n221.85,3.013\n222.33,2.986\n222.81,2.958\n223.29,2.935\n223.92,2.904\n224.46,2.881\n225.08,2.851\n225.68,2.820\n226.16,2.793\n226.78,2.767\n227.43,2.739\n228.01,2.713\n228.71,2.685\n229.29,2.660\n229.89,2.634\n230.62,2.604\n231.26,2.577\n231.90,2.550\n232.53,2.526\n233.17,2.499\n233.81,2.472\n234.45,2.445\n235.09,2.418\n235.73,2.391\n236.36,2.364\n237.00,2.337\n237.48,2.310\n238.12,2.282\n238.76,2.255\n239.23,2.228\n239.71,2.201\n240.35,2.174\n240.99,2.147\n241.47,2.120\n241.95,2.093\n242.58,2.066\n243.06,2.036\n243.54,2.009\n244.02,1.982\n244.50,1.955\n245.14,1.928\n245.61,1.901\n245.93,1.870\n246.57,1.843\n247.05,1.813\n247.44,1.785\n247.85,1.755\n248.24,1.724\n248.64,1.698\n249.10,1.670\n249.60,1.640\n250.08,1.610\n250.51,1.582\n250.88,1.552\n251.36,1.522\n251.71,1.497\n252.15,1.465\n252.63,1.434\n253.10,1.407\n253.59,1.377\n254.07,1.350\n254.55,1.323\n255.02,1.296\n255.50,1.268\n255.98,1.241\n256.46,1.214\n256.94,1.187\n257.47,1.160\n258.05,1.133\n258.53,1.106\n259.17,1.079\n##END=\n'