b'##TITLE=1,3-Propanediol, 2-amino-2-(hydroxymethyl)-\n##JCAMP-DX=4.24\n##DATA TYPE=UV/VIS SPECTRUM\n##ORIGIN=INSTITUTE OF ENERGY PROBLEMS OF CHEMICAL PHYSICS, RAS\n##OWNER=INEP CP RAS, NIST OSRD\nCollection (C) 2007 copyright by the U.S. Secretary of Commerce\non behalf of the United States of America. All rights reserved.\n##CAS REGISTRY NO=77-86-1\n##MOLFORM=C4H11NO3\n##SOURCE REFERENCE=RAS UV No. 19878\n##$NIST SQUIB=1971PARk2/4\n##$NIST SOURCE=TYUGLMTE\n##SPECTROMETER/DATA SYSTEM=Unicam SP 500\n##XUNITS=Wavelength (nm)\n##YUNITS=Logarithm epsilon\n##XFACTOR=1.0\n##YFACTOR=1.0\n##FIRSTX=203.87\n##LASTX=365.51\n##FIRSTY=1.855\n##MAXX=365.51\n##MINX=203.87\n##MAXY=1.855\n##MINY=-1.553\n##NPOINTS=171\n##$REF AUTHOR=Parish, C.\n##$REF JOURNAL=UV atlas of organic compounds\n##$REF VOLUME=5\n##$REF PAGE=K2/4\n##$REF DATE=1971\n##XYPOINTS=(XY..XY)\n203.87,1.855\n204.10,1.836\n204.32,1.816\n204.73,1.778\n205.27,1.725\n205.81,1.670\n206.36,1.617\n206.91,1.563\n207.46,1.508\n208.01,1.455\n208.57,1.399\n209.13,1.350\n209.70,1.299\n210.27,1.242\n210.84,1.195\n211.41,1.137\n211.99,1.078\n212.57,1.020\n213.15,0.961\n213.73,0.918\n214.32,0.863\n214.92,0.807\n215.51,0.754\n216.11,0.696\n216.71,0.635\n217.32,0.575\n217.93,0.522\n218.54,0.471\n219.16,0.411\n219.78,0.358\n220.40,0.309\n221.03,0.258\n221.66,0.209\n222.29,0.168\n222.93,0.124\n223.57,0.081\n224.22,0.045\n224.87,0.006\n225.52,-0.034\n226.17,-0.062\n226.83,-0.094\n227.50,-0.124\n228.17,-0.151\n228.84,-0.173\n229.51,-0.200\n230.19,-0.222\n230.88,-0.245\n231.57,-0.266\n232.26,-0.290\n232.95,-0.311\n233.65,-0.332\n234.36,-0.349\n235.07,-0.371\n235.78,-0.390\n236.50,-0.407\n237.22,-0.428\n237.95,-0.445\n238.68,-0.464\n239.41,-0.483\n240.15,-0.498\n240.90,-0.515\n241.64,-0.532\n242.40,-0.547\n243.16,-0.564\n243.92,-0.579\n244.69,-0.594\n245.46,-0.607\n246.24,-0.624\n247.02,-0.637\n247.81,-0.650\n248.60,-0.665\n249.40,-0.675\n250.20,-0.688\n251.01,-0.699\n251.82,-0.709\n252.64,-0.718\n253.46,-0.728\n254.29,-0.739\n255.13,-0.748\n255.97,-0.756\n256.82,-0.760\n257.67,-0.769\n258.52,-0.775\n259.39,-0.780\n260.25,-0.788\n261.13,-0.792\n262.01,-0.799\n262.90,-0.803\n263.79,-0.809\n264.69,-0.814\n265.32,-0.821\n266.12,-0.826\n267.09,-0.834\n268.33,-0.842\n269.27,-0.848\n270.28,-0.853\n271.15,-0.856\n272.10,-0.860\n273.06,-0.867\n274.02,-0.869\n274.99,-0.873\n275.96,-0.878\n276.95,-0.880\n277.94,-0.886\n278.94,-0.888\n279.94,-0.890\n280.95,-0.895\n281.97,-0.897\n283.00,-0.899\n284.03,-0.901\n285.07,-0.905\n286.12,-0.907\n287.18,-0.909\n288.25,-0.912\n289.32,-0.914\n290.40,-0.918\n291.49,-0.918\n292.59,-0.920\n293.69,-0.924\n294.81,-0.929\n295.93,-0.931\n297.06,-0.937\n298.20,-0.941\n299.35,-0.948\n300.50,-0.950\n301.67,-0.952\n302.85,-0.958\n304.03,-0.961\n305.23,-0.965\n306.43,-0.969\n307.64,-0.973\n308.86,-0.978\n310.10,-0.982\n311.34,-0.988\n312.59,-0.990\n313.85,-0.997\n315.13,-1.003\n316.41,-1.007\n317.70,-1.012\n319.01,-1.020\n320.32,-1.029\n321.65,-1.035\n322.98,-1.044\n324.33,-1.052\n325.69,-1.063\n327.06,-1.076\n328.44,-1.086\n329.84,-1.101\n331.24,-1.116\n332.66,-1.133\n334.09,-1.148\n335.53,-1.163\n336.99,-1.182\n338.45,-1.195\n339.93,-1.214\n341.43,-1.235\n342.93,-1.257\n344.45,-1.278\n345.99,-1.299\n347.53,-1.325\n349.10,-1.346\n350.67,-1.367\n352.26,-1.391\n353.86,-1.419\n355.48,-1.440\n357.12,-1.461\n358.76,-1.480\n360.43,-1.502\n362.11,-1.519\n363.80,-1.534\n365.51,-1.553\n##END=\n'