b'##TITLE=2-Methyl-1,3-butadiene\n##JCAMP-DX=4.24\n##DATA TYPE=UV/VIS SPECTRUM\n##ORIGIN=INSTITUTE OF ENERGY PROBLEMS OF CHEMICAL PHYSICS, RAS\n##OWNER=INEP CP RAS, NIST OSRD\nCollection (C) 2007 copyright by the U.S. Secretary of Commerce\non behalf of the United States of America. All rights reserved.\n##CAS REGISTRY NO=78-79-5\n##MOLFORM=C5H8\n##BP=34\n##SOURCE REFERENCE=RAS UV No. 20110\n##$NIST SQUIB=1969FIH/9\n##$NIST SOURCE=TYUGLMTE\n##SPECTROMETER/DATA SYSTEM=SF-4\n##XUNITS=Wavelength (nm)\n##YUNITS=Logarithm epsilon\n##XFACTOR=1.0\n##YFACTOR=1.0\n##FIRSTX=203.86\n##LASTX=237.44\n##FIRSTY=3.85\n##MAXX=237.44\n##MINX=203.86\n##MAXY=4.332\n##MINY=3.406\n##NPOINTS=99\n##$REF AUTHOR=Fihtengolts, V.S.; et al.\n##$REF JOURNAL=Atlas of UV Absorption Spectra of Substances Used in Synthetic Rubber Manufacture\n##$REF PAGE=9\n##$REF DATE=1969\n##XYPOINTS=(XY..XY)\n203.86,3.850\n203.95,3.853\n204.03,3.855\n204.12,3.857\n204.39,3.867\n204.82,3.882\n205.17,3.899\n205.52,3.914\n205.87,3.928\n206.23,3.943\n206.58,3.956\n206.93,3.971\n207.28,3.983\n207.63,3.999\n207.98,4.013\n208.33,4.024\n208.68,4.037\n209.04,4.048\n209.38,4.058\n209.74,4.070\n210.08,4.082\n210.45,4.093\n210.78,4.104\n211.14,4.114\n211.49,4.127\n211.84,4.138\n212.19,4.149\n212.54,4.160\n212.89,4.171\n213.24,4.182\n213.59,4.191\n213.94,4.198\n214.29,4.207\n214.64,4.217\n214.99,4.226\n215.34,4.232\n215.70,4.241\n216.05,4.249\n216.40,4.255\n216.75,4.263\n217.10,4.270\n217.45,4.278\n217.81,4.285\n218.15,4.291\n218.50,4.293\n218.85,4.294\n219.20,4.294\n219.55,4.297\n219.90,4.298\n220.25,4.300\n220.61,4.302\n220.96,4.304\n221.31,4.306\n221.66,4.309\n222.01,4.314\n222.36,4.319\n222.71,4.325\n223.06,4.329\n223.41,4.332\n223.76,4.329\n224.11,4.323\n224.46,4.316\n224.81,4.309\n225.16,4.299\n225.52,4.288\n225.87,4.272\n226.22,4.258\n226.57,4.242\n226.92,4.231\n227.27,4.217\n227.62,4.206\n227.97,4.193\n228.32,4.184\n228.67,4.175\n229.02,4.168\n229.37,4.159\n229.72,4.152\n230.08,4.146\n230.43,4.140\n230.78,4.128\n231.13,4.122\n231.48,4.117\n231.83,4.106\n232.18,4.097\n232.53,4.084\n232.88,4.071\n233.23,4.043\n233.58,3.995\n233.93,3.945\n234.28,3.899\n234.63,3.855\n234.99,3.792\n235.34,3.722\n235.69,3.643\n236.04,3.599\n236.39,3.536\n236.74,3.489\n237.09,3.450\n237.44,3.406\n##END=\n'