b'##TITLE=2-Propanone, 1-chloro-\n##JCAMP-DX=4.24\n##DATA TYPE=UV/VIS SPECTRUM\n##ORIGIN=INSTITUTE OF ENERGY PROBLEMS OF CHEMICAL PHYSICS, RAS\n##OWNER=INEP CP RAS, NIST OSRD\nCollection (C) 2007 copyright by the U.S. Secretary of Commerce\non behalf of the United States of America. All rights reserved.\n##CAS REGISTRY NO=78-95-5\n##MOLFORM=C3H5ClO\n##BP=58/ 80 mm\n##SOURCE REFERENCE=RAS UV No. 15330\n##$NIST SQUIB=1970SMI/THO296\n##$NIST SOURCE=TYUGLMTE\n##SPECTROMETER/DATA SYSTEM=Bausch and Lomb Spectronic 600\n##XUNITS=Wavelength (nm)\n##YUNITS=Logarithm epsilon\n##XFACTOR=1.0\n##YFACTOR=1.0\n##FIRSTX=210.44\n##LASTX=327.32\n##FIRSTY=1.389\n##MAXX=327.32\n##MINX=210.44\n##MAXY=1.51\n##MINY=0.543\n##NPOINTS=131\n##$REF AUTHOR=Smith, E.D.; Thornsberry, W.L.\n##$REF JOURNAL=J. Chem. Eng. Data\n##$REF VOLUME=15\n##$REF PAGE=296\n##$REF DATE=1970\n##XYPOINTS=(XY..XY)\n210.44,1.389\n210.91,1.380\n211.23,1.369\n211.70,1.360\n212.49,1.350\n212.97,1.340\n213.60,1.330\n214.08,1.319\n214.71,1.309\n215.50,1.299\n216.77,1.303\n217.56,1.313\n218.35,1.323\n219.14,1.334\n219.93,1.342\n220.40,1.352\n221.04,1.362\n221.51,1.371\n222.14,1.381\n222.78,1.390\n223.25,1.399\n223.88,1.407\n224.36,1.417\n224.99,1.425\n225.62,1.433\n226.26,1.442\n226.89,1.449\n227.52,1.457\n228.15,1.465\n228.79,1.472\n229.58,1.480\n230.37,1.486\n231.16,1.493\n232.11,1.499\n233.06,1.504\n234.16,1.509\n235.59,1.510\n237.01,1.508\n237.80,1.502\n238.59,1.496\n239.38,1.490\n240.17,1.482\n240.96,1.476\n241.76,1.469\n242.55,1.462\n243.34,1.455\n244.13,1.448\n244.92,1.442\n245.71,1.433\n246.34,1.425\n247.13,1.418\n247.92,1.411\n248.71,1.402\n249.51,1.394\n250.30,1.385\n251.09,1.376\n251.88,1.367\n252.67,1.358\n253.46,1.350\n254.25,1.341\n255.04,1.331\n255.83,1.322\n256.62,1.311\n257.41,1.302\n258.36,1.292\n259.31,1.284\n260.42,1.275\n261.37,1.264\n262.47,1.255\n263.74,1.249\n265.16,1.249\n266.59,1.251\n267.85,1.258\n268.96,1.266\n270.22,1.272\n271.49,1.278\n272.76,1.282\n274.02,1.288\n275.29,1.294\n276.39,1.300\n277.66,1.306\n279.08,1.309\n280.35,1.314\n281.61,1.319\n283.04,1.322\n284.14,1.328\n285.57,1.330\n286.99,1.328\n288.26,1.322\n289.05,1.313\n289.99,1.303\n290.94,1.295\n291.89,1.285\n292.68,1.275\n293.47,1.264\n294.42,1.254\n295.21,1.243\n296.16,1.232\n296.95,1.220\n297.90,1.210\n298.69,1.198\n299.64,1.186\n300.59,1.175\n301.38,1.162\n302.33,1.149\n303.12,1.135\n304.23,1.122\n305.02,1.107\n305.97,1.094\n306.92,1.079\n307.87,1.062\n308.66,1.045\n309.61,1.028\n310.71,1.012\n311.51,0.993\n312.45,0.975\n313.40,0.958\n314.19,0.936\n315.14,0.916\n316.09,0.896\n317.04,0.871\n318.15,0.848\n319.10,0.819\n320.05,0.789\n321.15,0.761\n321.94,0.727\n323.05,0.700\n324.16,0.666\n325.11,0.629\n326.21,0.588\n327.32,0.543\n##END=\n'