b"##TITLE=Methyl vinyl ketone\n##JCAMP-DX=4.24\n##DATA TYPE=UV/VIS SPECTRUM\n##ORIGIN=INSTITUTE OF ENERGY PROBLEMS OF CHEMICAL PHYSICS, RAS\n##OWNER=INEP CP RAS, NIST OSRD\nCollection (C) 2007 copyright by the U.S. Secretary of Commerce\non behalf of the United States of America. All rights reserved.\n##CAS REGISTRY NO=78-94-4\n##MOLFORM=C4H6O\n##BP=81.4\n##SOURCE REFERENCE=RAS UV No. 20219\n##$NIST SQUIB=1969BOL/260\n##$NIST SOURCE=TYUGLMTE\n##SPECTROMETER/DATA SYSTEM=unknown\n##XUNITS=Wavelength (nm)\n##YUNITS=Logarithm epsilon\n##XFACTOR=1.0\n##YFACTOR=1.0\n##FIRSTX=221.36\n##LASTX=364.38\n##FIRSTY=3.41\n##MAXX=364.38\n##MINX=221.36\n##MAXY=3.41\n##MINY=0.583\n##NPOINTS=75\n##$REF AUTHOR=Bol'shakov, G.F.; et al.\n##$REF JOURNAL=Ultraviolet spectra of heteroorganic compounds\n##$REF PAGE=260\n##$REF DATE=1969\n##XYPOINTS=(XY..XY)\n221.36,3.410\n222.69,3.340\n223.90,3.265\n224.49,3.236\n226.46,3.114\n228.43,2.987\n230.40,2.848\n232.37,2.710\n234.34,2.549\n236.31,2.372\n238.28,2.195\n240.25,1.979\n242.22,1.774\n244.19,1.502\n246.16,1.225\n248.13,0.993\n250.10,0.871\n252.07,0.738\n254.04,0.660\n256.01,0.611\n257.98,0.588\n259.95,0.583\n261.92,0.588\n263.89,0.605\n265.86,0.627\n267.83,0.649\n269.80,0.677\n271.78,0.710\n274.01,0.740\n276.44,0.774\n277.98,0.799\n279.66,0.827\n281.63,0.860\n283.60,0.888\n285.78,0.923\n287.54,0.954\n289.51,0.993\n291.48,1.026\n293.45,1.058\n295.42,1.087\n297.39,1.120\n299.36,1.159\n301.33,1.192\n303.30,1.225\n305.27,1.264\n307.24,1.292\n309.21,1.314\n311.18,1.336\n313.09,1.352\n315.12,1.364\n317.09,1.369\n319.06,1.375\n320.88,1.380\n323.00,1.380\n324.97,1.375\n326.94,1.369\n328.91,1.364\n330.88,1.353\n332.92,1.340\n334.82,1.325\n336.79,1.308\n338.77,1.281\n340.74,1.253\n342.23,1.226\n344.68,1.187\n346.58,1.145\n348.62,1.104\n350.59,1.059\n352.56,1.009\n354.53,0.965\n356.50,0.910\n358.47,0.854\n360.44,0.782\n362.41,0.721\n364.38,0.644\n##END=\n"