b'##TITLE=Propanamide\n##JCAMP-DX=4.24\n##DATA TYPE=UV/VIS SPECTRUM\n##ORIGIN=INSTITUTE OF ENERGY PROBLEMS OF CHEMICAL PHYSICS, RAS\n##OWNER=INEP CP RAS, NIST OSRD\nCollection (C) 2007 copyright by the U.S. Secretary of Commerce\non behalf of the United States of America. All rights reserved.\n##CAS REGISTRY NO=79-05-0\n##MOLFORM=C3H7NO\n##MP=78-79\n##SOURCE REFERENCE=RAS UV No. 19952\n##$NIST SQUIB=1966JOHb10/1\n##$NIST SOURCE=TYUGLMTE\n##SPECTROMETER/DATA SYSTEM=Unicam SP 500\n##XUNITS=Wavelength (nm)\n##YUNITS=Logarithm epsilon\n##XFACTOR=1.0\n##YFACTOR=1.0\n##FIRSTX=191.67\n##LASTX=241.7\n##FIRSTY=3.623\n##MAXX=241.7\n##MINX=191.67\n##MAXY=3.623\n##MINY=0.058\n##NPOINTS=138\n##$REF AUTHOR=Johnson, E.A.\n##$REF JOURNAL=UV atlas of organic compouds\n##$REF VOLUME=1\n##$REF PAGE=B10/1\n##$REF DATE=1966\n##XYPOINTS=(XY..XY)\n191.67,3.623\n191.75,3.619\n191.83,3.616\n191.91,3.612\n191.99,3.608\n192.07,3.604\n192.15,3.599\n192.23,3.595\n192.31,3.591\n192.38,3.587\n192.46,3.582\n192.54,3.578\n192.62,3.574\n192.70,3.569\n192.78,3.567\n192.94,3.561\n193.26,3.539\n193.58,3.518\n193.90,3.492\n194.23,3.471\n194.55,3.447\n194.87,3.419\n195.20,3.394\n195.53,3.364\n195.86,3.334\n196.19,3.306\n196.52,3.282\n196.85,3.250\n197.18,3.218\n197.51,3.184\n197.85,3.149\n198.18,3.115\n198.52,3.077\n198.86,3.040\n199.20,3.002\n199.54,2.965\n199.88,2.922\n200.22,2.884\n200.57,2.841\n200.91,2.802\n201.26,2.764\n201.61,2.725\n201.96,2.689\n202.31,2.650\n202.66,2.618\n203.01,2.584\n203.37,2.552\n203.72,2.522\n204.08,2.490\n204.43,2.462\n204.79,2.432\n205.15,2.406\n205.51,2.380\n205.88,2.357\n206.24,2.337\n206.61,2.316\n206.97,2.297\n207.34,2.275\n207.71,2.256\n208.08,2.241\n208.45,2.224\n208.82,2.211\n209.20,2.196\n209.57,2.183\n209.95,2.166\n210.33,2.155\n210.71,2.145\n211.09,2.132\n211.47,2.121\n211.86,2.108\n212.24,2.093\n212.63,2.082\n213.02,2.070\n213.41,2.052\n213.80,2.042\n214.19,2.027\n214.58,2.012\n214.98,1.999\n215.38,1.980\n215.78,1.960\n216.17,1.948\n216.58,1.928\n216.98,1.915\n217.38,1.896\n217.79,1.877\n218.20,1.858\n218.60,1.843\n219.02,1.823\n219.43,1.804\n219.84,1.783\n220.26,1.763\n220.67,1.742\n221.09,1.723\n221.51,1.699\n221.93,1.684\n222.35,1.652\n222.78,1.633\n223.20,1.609\n223.63,1.583\n224.06,1.558\n224.49,1.532\n224.93,1.506\n225.36,1.478\n225.80,1.453\n226.23,1.420\n226.67,1.393\n227.11,1.363\n227.56,1.328\n228.00,1.294\n228.45,1.262\n228.90,1.230\n229.35,1.198\n229.80,1.161\n230.25,1.127\n230.71,1.088\n231.16,1.050\n231.62,1.011\n232.08,0.966\n232.55,0.923\n233.01,0.883\n233.48,0.840\n233.94,0.797\n234.41,0.758\n234.89,0.716\n235.36,0.668\n235.84,0.623\n236.31,0.572\n236.79,0.521\n237.27,0.478\n237.76,0.428\n238.24,0.396\n238.73,0.349\n239.22,0.300\n239.71,0.255\n240.20,0.206\n240.70,0.161\n241.20,0.109\n241.70,0.058\n##END=\n'