b'##TITLE=Trichloroethylene\n##JCAMP-DX=4.24\n##DATA TYPE=UV/VIS SPECTRUM\n##ORIGIN=INSTITUTE OF ENERGY PROBLEMS OF CHEMICAL PHYSICS, RAS\n##OWNER=INEP CP RAS, NIST OSRD\nCollection (C) 2007 copyright by the U.S. Secretary of Commerce\non behalf of the United States of America. All rights reserved.\n##CAS REGISTRY NO=79-01-6\n##MOLFORM=C2HCl3\n##BP=87\n##SOURCE REFERENCE=RAS UV No. 19916\n##$NIST SQUIB=1966PER/BRAa1/6\n##$NIST SOURCE=TYUGLMTE\n##SPECTROMETER/DATA SYSTEM=Zeiss PMQ II\n##XUNITS=Wavelength (nm)\n##YUNITS=Logarithm epsilon\n##XFACTOR=1.0\n##YFACTOR=1.0\n##FIRSTX=185\n##LASTX=252.57\n##FIRSTY=3.546\n##MAXX=252.57\n##MINX=185\n##MAXY=4.036\n##MINY=1.315\n##NPOINTS=231\n##$REF AUTHOR=Perkampus, H.-H.; Braunsweig, T.H.\n##$REF JOURNAL=UV atlas of organic compounds\n##$REF VOLUME=1\n##$REF PAGE=A1/6\n##$REF DATE=1966\n##XYPOINTS=(XY..XY)\n185.00,3.546\n185.08,3.548\n185.15,3.550\n185.22,3.552\n185.30,3.554\n185.37,3.556\n185.45,3.558\n185.52,3.558\n185.59,3.560\n185.67,3.562\n185.89,3.569\n186.11,3.577\n186.34,3.587\n186.56,3.596\n186.79,3.606\n187.01,3.614\n187.24,3.623\n187.47,3.631\n187.69,3.639\n187.92,3.650\n188.15,3.658\n188.38,3.669\n188.61,3.679\n188.84,3.690\n189.07,3.698\n189.30,3.706\n189.53,3.719\n189.76,3.727\n190.00,3.740\n190.23,3.748\n190.46,3.761\n190.70,3.769\n190.93,3.781\n191.17,3.788\n191.40,3.800\n191.64,3.811\n191.88,3.821\n192.12,3.829\n192.35,3.840\n192.59,3.850\n192.83,3.861\n193.07,3.871\n193.31,3.882\n193.56,3.892\n193.80,3.900\n194.04,3.911\n194.28,3.921\n194.53,3.930\n194.77,3.938\n195.02,3.948\n195.26,3.952\n195.51,3.961\n195.76,3.969\n196.01,3.978\n196.25,3.982\n196.50,3.990\n196.75,3.998\n197.00,4.003\n197.25,4.009\n197.51,4.013\n197.76,4.019\n198.01,4.021\n198.26,4.021\n198.52,4.021\n198.77,4.023\n199.03,4.028\n199.28,4.030\n199.54,4.030\n199.80,4.032\n200.06,4.034\n200.31,4.034\n200.57,4.036\n200.86,4.034\n201.10,4.032\n201.32,4.028\n201.60,4.025\n201.88,4.019\n202.14,4.011\n202.41,4.003\n202.68,3.997\n202.94,3.992\n203.20,3.988\n203.47,3.982\n203.74,3.980\n204.01,3.973\n204.28,3.971\n204.55,3.969\n204.82,3.963\n205.09,3.961\n205.36,3.961\n205.63,3.959\n205.91,3.957\n206.18,3.952\n206.45,3.950\n206.73,3.948\n207.01,3.942\n207.28,3.940\n207.56,3.938\n207.84,3.932\n208.12,3.930\n208.40,3.925\n208.68,3.919\n208.96,3.917\n209.24,3.911\n209.53,3.909\n209.81,3.900\n210.10,3.898\n210.38,3.892\n210.67,3.888\n210.95,3.882\n211.24,3.877\n211.53,3.869\n211.82,3.865\n212.11,3.859\n212.40,3.850\n212.69,3.846\n212.98,3.840\n213.28,3.827\n213.57,3.823\n213.87,3.817\n214.16,3.806\n214.46,3.800\n214.76,3.794\n215.05,3.786\n215.35,3.777\n215.65,3.767\n215.95,3.763\n216.25,3.754\n216.56,3.744\n216.86,3.735\n217.16,3.725\n217.47,3.717\n217.77,3.706\n218.06,3.697\n218.39,3.685\n218.70,3.675\n219.01,3.669\n219.32,3.660\n219.63,3.652\n219.94,3.644\n220.25,3.635\n220.60,3.628\n220.88,3.621\n221.20,3.612\n221.51,3.604\n221.86,3.596\n222.15,3.585\n222.47,3.575\n222.76,3.566\n223.11,3.552\n223.43,3.541\n223.75,3.531\n224.06,3.518\n224.40,3.504\n224.73,3.491\n225.05,3.481\n225.38,3.468\n225.71,3.454\n226.04,3.441\n226.36,3.428\n226.70,3.413\n227.03,3.400\n227.36,3.383\n227.70,3.368\n228.05,3.353\n228.37,3.337\n228.71,3.320\n229.05,3.299\n229.38,3.283\n229.72,3.262\n230.07,3.249\n230.41,3.228\n230.75,3.210\n231.10,3.189\n231.44,3.160\n231.79,3.137\n232.13,3.116\n232.48,3.093\n232.83,3.070\n233.18,3.041\n233.53,3.020\n233.89,2.997\n234.24,2.970\n234.60,2.947\n234.95,2.917\n235.31,2.890\n235.67,2.859\n236.03,2.830\n236.39,2.803\n236.75,2.776\n237.11,2.748\n237.47,2.717\n237.84,2.686\n238.20,2.648\n238.57,2.619\n238.94,2.588\n239.31,2.554\n239.68,2.529\n240.05,2.504\n240.42,2.471\n240.79,2.440\n241.17,2.408\n241.55,2.377\n241.92,2.344\n242.30,2.306\n242.68,2.275\n243.06,2.233\n243.44,2.198\n243.83,2.164\n244.21,2.114\n244.60,2.077\n244.98,2.041\n245.37,2.001\n245.76,1.966\n246.15,1.924\n246.52,1.886\n246.96,1.844\n247.34,1.806\n247.72,1.772\n248.09,1.744\n248.63,1.694\n248.94,1.667\n249.41,1.627\n249.73,1.600\n250.17,1.560\n250.53,1.524\n250.94,1.486\n251.34,1.446\n251.75,1.403\n252.16,1.363\n252.57,1.315\n##END=\n'