b'##TITLE=Acetic acid, chloro-\n##JCAMP-DX=4.24\n##DATA TYPE=UV/VIS SPECTRUM\n##ORIGIN=INSTITUTE OF ENERGY PROBLEMS OF CHEMICAL PHYSICS, RAS\n##OWNER=INEP CP RAS, NIST OSRD\nCollection (C) 2007 copyright by the U.S. Secretary of Commerce\non behalf of the United States of America. All rights reserved.\n##CAS REGISTRY NO=79-11-8\n##MOLFORM=C2H3ClO2\n##MP=63\n##BP=189.3\n##SOURCE REFERENCE=RAS UV No. 12868\n##$NIST SQUIB=1959SCH/ULL185\n##$NIST SOURCE=TYUGLMTE\n##SPECTROMETER/DATA SYSTEM=Frankfurt\n##XUNITS=Wavelength (nm)\n##YUNITS=Logarithm epsilon\n##XFACTOR=1.0\n##YFACTOR=1.0\n##FIRSTX=207.92\n##LASTX=393.14\n##FIRSTY=1.907\n##MAXX=393.14\n##MINX=207.92\n##MAXY=1.907\n##MINY=-1.592\n##NPOINTS=117\n##$REF AUTHOR=Schurz, J.; Ullrich, A.\n##$REF JOURNAL=Z. physik. Chem. (Frankfurt)\n##$REF VOLUME=21\n##$REF PAGE=185\n##$REF DATE=1959\n##XYPOINTS=(XY..XY)\n207.92,1.907\n209.48,1.903\n211.06,1.898\n212.48,1.885\n214.10,1.885\n215.75,1.880\n217.43,1.876\n218.94,1.863\n220.67,1.858\n222.42,1.854\n224.00,1.832\n225.81,1.823\n227.44,1.805\n229.09,1.787\n230.77,1.765\n232.26,1.739\n233.77,1.717\n235.07,1.690\n236.18,1.659\n237.51,1.628\n238.86,1.597\n239.77,1.561\n240.92,1.526\n241.84,1.491\n243.01,1.455\n243.95,1.420\n244.90,1.384\n245.85,1.349\n246.58,1.313\n247.54,1.278\n248.28,1.243\n249.01,1.207\n249.50,1.167\n250.50,1.132\n251.25,1.092\n251.75,1.052\n252.51,1.012\n253.01,0.972\n253.78,0.932\n254.55,0.893\n255.32,0.853\n255.84,0.813\n256.88,0.777\n257.41,0.738\n257.93,0.698\n258.20,0.658\n258.73,0.618\n259.26,0.578\n260.06,0.538\n260.60,0.498\n261.41,0.458\n261.95,0.419\n262.50,0.379\n263.32,0.339\n264.15,0.299\n264.71,0.259\n265.54,0.219\n266.10,0.179\n266.67,0.140\n267.52,0.100\n268.37,0.060\n268.66,0.020\n269.52,-0.020\n270.10,-0.060\n270.68,-0.100\n271.26,-0.140\n271.84,-0.179\n272.14,-0.219\n273.02,-0.259\n273.62,-0.299\n274.21,-0.339\n274.81,-0.379\n275.41,-0.419\n276.01,-0.458\n276.62,-0.498\n277.53,-0.538\n278.45,-0.578\n279.38,-0.618\n280.31,-0.658\n281.56,-0.693\n283.15,-0.729\n284.75,-0.764\n286.69,-0.791\n288.66,-0.817\n290.66,-0.844\n292.68,-0.870\n295.08,-0.893\n297.52,-0.915\n300.36,-0.937\n303.25,-0.959\n306.20,-0.981\n308.45,-1.008\n311.11,-1.030\n314.21,-1.048\n316.98,-1.074\n319.80,-1.096\n322.66,-1.118\n325.58,-1.145\n328.12,-1.172\n331.14,-1.198\n334.22,-1.220\n337.35,-1.243\n340.08,-1.269\n342.86,-1.296\n345.68,-1.327\n349.03,-1.353\n352.45,-1.375\n355.93,-1.402\n359.49,-1.424\n363.11,-1.451\n367.35,-1.468\n371.68,-1.491\n376.12,-1.508\n380.09,-1.530\n384.73,-1.548\n388.89,-1.570\n393.14,-1.592\n##END=\n'