b'##TITLE=Ethene, 1,1-dichloro-2,2-difluoro-\n##JCAMP-DX=4.24\n##DATA TYPE=UV/VIS SPECTRUM\n##ORIGIN=INSTITUTE OF ENERGY PROBLEMS OF CHEMICAL PHYSICS, RAS\n##OWNER=INEP CP RAS, NIST OSRD\nCollection (C) 2007 copyright by the U.S. Secretary of Commerce\non behalf of the United States of America. All rights reserved.\n##CAS REGISTRY NO=79-35-6\n##MOLFORM=C2Cl2F2\n##MP=- 116\n##BP=19\n##SOURCE REFERENCE=RAS UV No. 10172\n##$NIST SQUIB=1950LAC/PAR5486\n##$NIST SOURCE=TYUGLMTE\n##SPECTROMETER/DATA SYSTEM=Beckman DU\n##XUNITS=Wavelength (nm)\n##YUNITS=Logarithm epsilon\n##XFACTOR=1.0\n##YFACTOR=1.0\n##FIRSTX=245.13\n##LASTX=263.56\n##FIRSTY=1.655\n##MAXX=263.56\n##MINX=245.13\n##MAXY=1.655\n##MINY=-0.051\n##NPOINTS=59\n##$REF AUTHOR=Lacher, J.R.; Park, J.D.\n##$REF JOURNAL=J. Am. Chem. Soc.\n##$REF VOLUME=72\n##$REF PAGE=5486\n##$REF DATE=1950\n##XYPOINTS=(XY..XY)\n245.13,1.655\n245.14,1.654\n245.26,1.643\n245.37,1.633\n245.49,1.620\n245.56,1.613\n245.61,1.606\n245.71,1.596\n245.83,1.584\n245.93,1.573\n246.01,1.566\n246.08,1.556\n246.18,1.545\n246.28,1.536\n246.39,1.527\n246.53,1.512\n246.66,1.501\n246.76,1.491\n246.88,1.479\n247.03,1.466\n247.20,1.453\n247.35,1.440\n247.48,1.427\n247.59,1.417\n247.73,1.406\n247.94,1.388\n248.17,1.368\n248.31,1.356\n248.52,1.336\n248.68,1.321\n248.89,1.303\n249.08,1.283\n249.26,1.262\n249.45,1.237\n249.61,1.218\n249.85,1.190\n250.04,1.169\n250.19,1.151\n250.43,1.125\n250.67,1.097\n250.91,1.067\n251.27,1.031\n251.63,0.995\n252.00,0.957\n252.36,0.915\n252.75,0.873\n253.32,0.815\n253.71,0.771\n254.27,0.715\n254.95,0.654\n255.63,0.591\n256.45,0.519\n257.32,0.445\n258.12,0.369\n259.16,0.281\n260.29,0.189\n261.32,0.101\n262.45,0.022\n263.56,-0.051\n##END=\n'