b'##TITLE=Ethene, chlorotrifluoro-\n##JCAMP-DX=4.24\n##DATA TYPE=UV/VIS SPECTRUM\n##ORIGIN=INSTITUTE OF ENERGY PROBLEMS OF CHEMICAL PHYSICS, RAS\n##OWNER=INEP CP RAS, NIST OSRD\nCollection (C) 2007 copyright by the U.S. Secretary of Commerce\non behalf of the United States of America. All rights reserved.\n##CAS REGISTRY NO=79-38-9\n##MOLFORM=C2ClF3\n##MP=- 158\n##BP=- 27.8\n##SOURCE REFERENCE=RAS UV No. 10170\n##$NIST SQUIB=1950LAC/PAR5486\n##$NIST SOURCE=TYUGLMTE\n##SPECTROMETER/DATA SYSTEM=Beckman DU\n##XUNITS=Wavelength (nm)\n##YUNITS=Logarithm epsilon\n##XFACTOR=1.0\n##YFACTOR=1.0\n##FIRSTX=231.13\n##LASTX=249.59\n##FIRSTY=1.666\n##MAXX=249.59\n##MINX=231.13\n##MAXY=1.666\n##MINY=-0.424\n##NPOINTS=61\n##$REF AUTHOR=Lacher, J.R.; Park, J.D.\n##$REF JOURNAL=J. Am. Chem. Soc.\n##$REF VOLUME=72\n##$REF PAGE=5486\n##$REF DATE=1950\n##XYPOINTS=(XY..XY)\n231.13,1.666\n231.16,1.663\n231.25,1.653\n231.36,1.639\n231.45,1.628\n231.51,1.620\n231.59,1.612\n231.67,1.603\n231.77,1.594\n231.86,1.585\n231.92,1.580\n231.97,1.575\n232.07,1.566\n232.19,1.554\n232.28,1.545\n232.42,1.529\n232.58,1.512\n232.69,1.500\n232.79,1.489\n232.89,1.476\n233.10,1.464\n233.20,1.451\n233.30,1.438\n233.45,1.425\n233.61,1.410\n233.76,1.396\n233.90,1.381\n234.03,1.369\n234.19,1.351\n234.35,1.335\n234.54,1.314\n234.69,1.298\n234.88,1.278\n235.06,1.257\n235.27,1.236\n235.48,1.215\n235.69,1.192\n235.91,1.168\n236.15,1.142\n236.39,1.113\n236.67,1.086\n236.96,1.057\n237.28,1.023\n237.60,0.987\n238.02,0.952\n238.35,0.914\n238.78,0.872\n239.21,0.825\n239.75,0.773\n240.29,0.714\n240.95,0.664\n241.62,0.611\n242.38,0.530\n243.16,0.451\n243.95,0.354\n244.85,0.253\n245.76,0.150\n246.58,0.037\n247.59,-0.093\n248.53,-0.248\n249.59,-0.424\n##END=\n'