b'##TITLE=Oxalyl chloride\n##JCAMP-DX=4.24\n##DATA TYPE=UV/VIS SPECTRUM\n##ORIGIN=INSTITUTE OF ENERGY PROBLEMS OF CHEMICAL PHYSICS, RAS\n##OWNER=INEP CP RAS, NIST OSRD\nCollection (C) 2007 copyright by the U.S. Secretary of Commerce\non behalf of the United States of America. All rights reserved.\n##CAS REGISTRY NO=79-37-8\n##MOLFORM=C2Cl2O2\n##MP=- 12\n##BP=63.5-64/ 763 mm\n##SOURCE REFERENCE=RAS UV No. 10174\n##$NIST SQUIB=1951SAK/KAG999\n##$NIST SOURCE=TYUGLMTE\n##SPECTROMETER/DATA SYSTEM=Beckman quartz spectrophotometer\n##STATE=<none>\n##XUNITS=Wavelength (nm)\n##YUNITS=Logarithm epsilon\n##XFACTOR=1.0\n##YFACTOR=1.0\n##FIRSTX=266.77\n##LASTX=382.17\n##FIRSTY=1.686\n##MAXX=382.17\n##MINX=266.77\n##MAXY=1.686\n##MINY=-0.053\n##NPOINTS=123\n##$REF AUTHOR=Saksena, B.D.; Kagarise, R.E.\n##$REF JOURNAL=J. Chem. Phys.\n##$REF VOLUME=19\n##$REF PAGE=999\n##$REF DATE=1951\n##XYPOINTS=(XY..XY)\n266.77,1.686\n267.25,1.680\n267.57,1.674\n267.90,1.667\n268.06,1.660\n268.38,1.652\n268.70,1.645\n268.86,1.638\n269.19,1.630\n269.51,1.622\n269.67,1.614\n269.99,1.606\n270.48,1.598\n270.80,1.590\n271.28,1.581\n271.77,1.573\n272.09,1.564\n272.73,1.556\n273.22,1.548\n273.86,1.540\n274.67,1.532\n275.63,1.526\n276.60,1.518\n277.41,1.510\n278.21,1.502\n278.86,1.493\n279.66,1.484\n280.47,1.474\n281.44,1.466\n282.40,1.458\n283.37,1.450\n284.34,1.441\n285.14,1.432\n286.27,1.425\n287.56,1.418\n288.85,1.413\n290.14,1.407\n291.43,1.400\n292.72,1.393\n293.85,1.385\n295.13,1.378\n296.42,1.372\n297.71,1.366\n299.16,1.364\n300.61,1.366\n301.90,1.370\n303.19,1.375\n304.64,1.376\n305.93,1.370\n307.22,1.364\n308.67,1.359\n310.12,1.355\n311.57,1.355\n312.86,1.361\n313.83,1.370\n314.80,1.379\n316.09,1.385\n317.05,1.396\n317.86,1.407\n318.83,1.416\n319.95,1.409\n320.76,1.397\n321.57,1.385\n322.21,1.373\n323.18,1.364\n324.47,1.356\n325.92,1.351\n327.37,1.353\n328.50,1.361\n329.62,1.369\n331.07,1.370\n332.36,1.375\n333.33,1.385\n334.14,1.396\n335.10,1.387\n335.43,1.373\n335.91,1.361\n336.23,1.346\n336.55,1.331\n336.88,1.316\n337.36,1.302\n338.17,1.289\n339.13,1.278\n340.10,1.266\n340.91,1.250\n341.39,1.233\n342.52,1.220\n343.97,1.214\n345.42,1.214\n346.71,1.205\n348.16,1.200\n349.45,1.212\n350.74,1.220\n351.70,1.207\n352.35,1.189\n352.83,1.170\n353.15,1.147\n353.48,1.123\n353.96,1.101\n354.44,1.077\n354.93,1.052\n355.73,1.025\n356.38,0.997\n357.35,0.971\n359.12,0.913\n360.09,0.885\n361.21,0.861\n362.50,0.841\n363.79,0.819\n365.24,0.808\n366.69,0.791\n368.14,0.773\n369.43,0.754\n370.56,0.721\n371.69,0.677\n372.49,0.621\n374.11,0.478\n375.40,0.413\n376.85,0.369\n378.14,0.302\n379.26,0.200\n380.55,0.098\n382.17,-0.053\n##END=\n'