b'##TITLE=2-Propenoic acid, 2-methyl-\n##JCAMP-DX=4.24\n##DATA TYPE=UV/VIS SPECTRUM\n##ORIGIN=INSTITUTE OF ENERGY PROBLEMS OF CHEMICAL PHYSICS, RAS\n##OWNER=INEP CP RAS, NIST OSRD\nCollection (C) 2007 copyright by the U.S. Secretary of Commerce\non behalf of the United States of America. All rights reserved.\n##CAS REGISTRY NO=79-41-4\n##MOLFORM=C4H6O2\n##BP=60/ 12 mm\n##SOURCE REFERENCE=RAS UV No. 20127\n##$NIST SQUIB=1969FIH/13\n##$NIST SOURCE=TYUGLMTE\n##SPECTROMETER/DATA SYSTEM=SF-4\n##XUNITS=Wavelength (nm)\n##YUNITS=Logarithm epsilon\n##XFACTOR=1.0\n##YFACTOR=1.0\n##FIRSTX=201.9\n##LASTX=229.78\n##FIRSTY=3.696\n##MAXX=229.78\n##MINX=201.9\n##MAXY=3.898\n##MINY=2.49\n##NPOINTS=113\n##$REF AUTHOR=Fihtengolts, V.S.; et al.\n##$REF JOURNAL=Atlas of UV Absorption Spectra of Substances Used in Synthetic Rubber Manufacture\n##$REF PAGE=13\n##$REF DATE=1969\n##XYPOINTS=(XY..XY)\n201.90,3.696\n201.99,3.707\n202.07,3.718\n202.20,3.729\n202.33,3.740\n202.46,3.750\n202.59,3.760\n202.77,3.768\n202.90,3.778\n203.07,3.786\n203.28,3.795\n203.41,3.803\n203.54,3.810\n203.76,3.817\n203.93,3.825\n204.15,3.832\n204.37,3.840\n204.58,3.847\n204.80,3.853\n204.97,3.860\n205.23,3.866\n205.45,3.872\n205.70,3.877\n206.01,3.881\n206.27,3.886\n206.57,3.890\n206.87,3.894\n207.22,3.898\n207.61,3.898\n208.00,3.898\n208.34,3.894\n208.73,3.893\n209.08,3.890\n209.42,3.885\n209.77,3.882\n210.03,3.876\n210.37,3.874\n210.63,3.869\n210.93,3.864\n211.24,3.858\n211.45,3.852\n211.71,3.846\n211.97,3.841\n212.23,3.834\n212.49,3.829\n212.71,3.821\n212.97,3.815\n213.18,3.808\n213.44,3.803\n213.70,3.797\n213.96,3.789\n214.22,3.782\n214.44,3.775\n214.65,3.767\n214.95,3.761\n215.17,3.753\n215.43,3.746\n215.65,3.738\n215.90,3.730\n216.16,3.723\n216.38,3.715\n216.64,3.706\n216.86,3.697\n217.11,3.689\n217.33,3.679\n217.59,3.670\n217.85,3.660\n218.11,3.652\n218.32,3.642\n218.58,3.632\n218.80,3.622\n219.06,3.611\n219.28,3.600\n219.49,3.587\n219.71,3.576\n219.97,3.565\n220.18,3.553\n220.44,3.541\n220.66,3.528\n220.87,3.513\n221.09,3.499\n221.31,3.485\n221.52,3.470\n221.78,3.455\n222.04,3.439\n222.26,3.423\n222.52,3.408\n222.73,3.388\n222.99,3.369\n223.21,3.350\n223.47,3.330\n223.68,3.306\n223.90,3.283\n224.12,3.260\n224.38,3.238\n224.59,3.212\n224.81,3.184\n225.11,3.159\n225.33,3.127\n225.59,3.093\n225.89,3.061\n226.15,3.027\n226.41,2.990\n226.71,2.956\n227.01,2.920\n227.31,2.872\n227.66,2.827\n228.01,2.777\n228.35,2.721\n228.70,2.684\n229.04,2.628\n229.39,2.547\n229.78,2.490\n##END=\n'