b'##TITLE=Ethanedithioamide\n##JCAMP-DX=4.24\n##DATA TYPE=UV/VIS SPECTRUM\n##ORIGIN=INSTITUTE OF ENERGY PROBLEMS OF CHEMICAL PHYSICS, RAS\n##OWNER=INEP CP RAS, NIST OSRD\nCollection (C) 2007 copyright by the U.S. Secretary of Commerce\non behalf of the United States of America. All rights reserved.\n##CAS REGISTRY NO=79-40-3\n##MOLFORM=C2H4N2S2\n##MP=140\n##SOURCE REFERENCE=RAS UV No. 19691\n##$NIST SQUIB=1962LAN55\n##$NIST SOURCE=TYUGLMTE\n##SPECTROMETER/DATA SYSTEM=Beckman DU\n##XUNITS=Wavelength (nm)\n##YUNITS=Logarithm epsilon\n##XFACTOR=1.0\n##YFACTOR=1.0\n##FIRSTX=221.33\n##LASTX=398.05\n##FIRSTY=2.502\n##MAXX=398.05\n##MINX=221.33\n##MAXY=2.95\n##MINY=1.146\n##NPOINTS=178\n##$REF AUTHOR=Lang (editor), L.\n##$REF JOURNAL=Absorption Spectra in the Ultraviolet and Visible Region\n##$REF VOLUME=3\n##$REF PAGE=55\n##$REF DATE=1962\n##XYPOINTS=(XY..XY)\n221.33,2.502\n222.01,2.475\n222.68,2.448\n223.35,2.421\n224.02,2.394\n224.86,2.367\n225.53,2.341\n226.04,2.314\n226.88,2.287\n227.55,2.260\n228.22,2.233\n229.06,2.209\n229.73,2.182\n230.40,2.155\n231.24,2.132\n231.92,2.105\n232.76,2.081\n233.60,2.054\n234.44,2.028\n235.28,2.001\n236.12,1.974\n236.96,1.950\n237.80,1.927\n238.64,1.903\n239.48,1.876\n240.48,1.852\n241.49,1.829\n242.50,1.809\n243.68,1.789\n244.85,1.768\n246.20,1.758\n247.71,1.752\n249.22,1.758\n250.73,1.768\n252.07,1.785\n253.25,1.802\n254.59,1.819\n255.77,1.836\n256.95,1.852\n258.12,1.869\n259.30,1.890\n260.31,1.910\n261.31,1.930\n262.32,1.950\n263.33,1.970\n264.17,1.994\n265.18,2.017\n266.02,2.044\n266.86,2.068\n267.70,2.095\n268.54,2.122\n269.38,2.145\n270.22,2.172\n271.06,2.196\n271.90,2.223\n272.74,2.246\n273.58,2.273\n274.42,2.300\n275.42,2.324\n276.26,2.351\n277.10,2.378\n277.94,2.401\n278.78,2.428\n279.62,2.452\n280.46,2.475\n281.30,2.499\n282.14,2.522\n283.15,2.546\n284.16,2.569\n285.17,2.593\n286.01,2.617\n287.01,2.640\n287.85,2.664\n288.86,2.684\n289.87,2.707\n290.88,2.731\n291.89,2.751\n292.89,2.771\n293.90,2.792\n295.08,2.808\n296.25,2.825\n297.43,2.842\n298.61,2.859\n299.95,2.876\n301.29,2.889\n302.64,2.903\n303.98,2.916\n305.49,2.923\n306.84,2.933\n308.35,2.936\n309.86,2.943\n311.37,2.946\n312.88,2.950\n314.40,2.950\n315.91,2.950\n317.42,2.946\n318.93,2.940\n320.44,2.933\n321.96,2.923\n323.47,2.913\n324.81,2.899\n326.15,2.889\n327.50,2.876\n328.84,2.862\n330.02,2.845\n331.19,2.829\n332.37,2.808\n333.71,2.792\n334.89,2.775\n335.90,2.755\n336.91,2.734\n338.08,2.714\n339.26,2.694\n340.27,2.674\n341.27,2.654\n342.28,2.633\n343.29,2.613\n344.30,2.593\n345.30,2.573\n346.31,2.553\n347.32,2.529\n348.33,2.509\n349.34,2.485\n350.34,2.462\n351.35,2.438\n352.36,2.415\n353.37,2.391\n354.38,2.367\n355.38,2.344\n356.56,2.324\n357.40,2.297\n358.41,2.277\n359.25,2.253\n360.25,2.233\n361.26,2.209\n362.27,2.186\n363.28,2.166\n364.29,2.142\n365.29,2.122\n366.30,2.098\n367.14,2.075\n368.15,2.051\n369.16,2.031\n370.00,2.007\n371.01,1.984\n371.85,1.960\n372.85,1.937\n373.69,1.913\n374.70,1.893\n375.54,1.869\n376.55,1.846\n377.39,1.822\n378.40,1.799\n379.24,1.775\n380.08,1.752\n380.92,1.728\n381.76,1.704\n382.76,1.681\n383.44,1.654\n384.28,1.627\n385.12,1.600\n385.96,1.573\n386.80,1.546\n387.64,1.519\n388.48,1.496\n389.15,1.469\n389.99,1.442\n390.83,1.415\n391.50,1.388\n392.34,1.361\n393.01,1.334\n393.85,1.307\n394.52,1.280\n395.36,1.253\n396.04,1.226\n396.71,1.199\n397.21,1.173\n398.05,1.146\n##END=\n'