b'##TITLE=Propane, 2-nitro-\n##JCAMP-DX=4.24\n##DATA TYPE=UV/VIS SPECTRUM\n##ORIGIN=INSTITUTE OF ENERGY PROBLEMS OF CHEMICAL PHYSICS, RAS\n##OWNER=INEP CP RAS, NIST OSRD\nCollection (C) 2007 copyright by the U.S. Secretary of Commerce\non behalf of the United States of America. All rights reserved.\n##CAS REGISTRY NO=79-46-9\n##MOLFORM=C3H7NO2\n##MP=-91.3\n##BP=120.2\n##SOURCE REFERENCE=RAS UV No. 782\n##$NIST SQUIB=1954HAS/JAN691-695\n##$NIST SOURCE=TSGMTE\n##SPECTROMETER/DATA SYSTEM=Unicam spectrophotometer or Perkim-Elmer 21\n##XUNITS=Wavelength (nm)\n##YUNITS=Logarithm epsilon\n##XFACTOR=1.000000\n##YFACTOR=1.000000\n##FIRSTX=250.6434\n##LASTX=349.0128\n##FIRSTY=0.899771\n##MAXX=349.013\n##MINX=250.643\n##MAXY=1.31722\n##MINY=0.056295\n##NPOINTS=112\n##$REF AUTHOR=Haszeldine, R.N.; Jander, J.\n##$REF TITLE=Studies in spectroscopy. Part VI. Ultra-violet and infra-red spectra of nitrosamines, nitrites, and related compounds\n##$REF JOURNAL=J. Chem. Soc.\n##$REF PAGE=691-695\n##$REF DATE=1954\n##XYPOINTS=(XY..XY)\n250.6434,0.899771\n250.6434,0.899771\n251.1780,0.914020\n251.8270,0.931376\n252.5741,0.951235\n253.4033,0.972985\n254.2984,0.996021\n255.2431,1.019731\n256.2213,1.043508\n257.2169,1.066743\n258.2137,1.088827\n259.1954,1.109153\n260.1460,1.127108\n261.0492,1.142089\n261.8889,1.153483\n262.6489,1.160685\n262.9390,1.159128\n262.9975,1.157330\n263.0063,1.163984\n263.2568,1.176057\n263.2568,1.176057\n264.4300,1.193378\n265.5789,1.209475\n266.7093,1.224362\n267.8268,1.238064\n268.9371,1.250596\n270.0459,1.261981\n271.1589,1.272239\n272.2818,1.281390\n273.4201,1.289453\n274.5797,1.296448\n275.7662,1.302398\n276.9853,1.307318\n278.2427,1.311232\n279.5440,1.314158\n280.8949,1.316119\n282.3011,1.317131\n283.7683,1.317217\n283.7683,1.317217\n285.1322,1.311449\n286.5052,1.305495\n287.8828,1.299451\n287.8828,1.299451\n289.4674,1.283823\n291.0611,1.268011\n292.6594,1.252110\n292.6594,1.252110\n292.8368,1.247848\n293.0724,1.242874\n293.4030,1.236426\n293.8652,1.227735\n294.4958,1.216037\n295.3315,1.200563\n296.4089,1.180550\n297.7649,1.155233\n299.4361,1.123842\n301.4593,1.085612\n303.8711,1.039779\n303.8711,1.039779\n304.0131,1.036066\n304.3487,1.028588\n304.8624,1.017597\n305.5388,1.003344\n306.3627,0.986082\n307.3185,0.966062\n308.3909,0.943539\n309.5646,0.918759\n310.8240,0.891978\n312.1539,0.863454\n313.5390,0.833428\n314.9636,0.802151\n314.9636,0.802151\n315.7746,0.782666\n316.5882,0.763241\n317.4046,0.743855\n318.2237,0.724530\n319.0453,0.705239\n319.8695,0.685992\n320.6963,0.666780\n321.5255,0.647598\n322.3571,0.628450\n323.1910,0.609328\n324.0273,0.590217\n324.8658,0.571138\n325.7066,0.552072\n326.5495,0.533009\n327.3945,0.513963\n328.2416,0.494920\n329.0907,0.475874\n329.9418,0.456837\n330.7947,0.437782\n331.6496,0.418715\n332.5062,0.399639\n333.3646,0.380537\n334.2248,0.361426\n335.0865,0.342284\n335.9499,0.323108\n335.9499,0.323108\n336.9216,0.303628\n337.8935,0.284160\n338.8656,0.264676\n339.8380,0.245192\n340.8110,0.225723\n341.7845,0.206232\n342.7588,0.186759\n343.7340,0.167258\n344.7102,0.147800\n345.6874,0.128302\n345.6874,0.128302\n346.7362,0.103667\n347.8121,0.079109\n349.0128,0.056295\n##END=\n'