b'##TITLE=DL-Threonine\n##JCAMP-DX=4.24\n##DATA TYPE=UV/VIS SPECTRUM\n##ORIGIN=INSTITUTE OF ENERGY PROBLEMS OF CHEMICAL PHYSICS, RAS\n##OWNER=INEP CP RAS, NIST OSRD\nCollection (C) 2007 copyright by the U.S. Secretary of Commerce\non behalf of the United States of America. All rights reserved.\n##CAS REGISTRY NO=80-68-2\n##MOLFORM=C4H9NO3\n##MP=244 dec\n##SOURCE REFERENCE=RAS UV No. 10658\n##$NIST SQUIB=1952SEI/WAL285\n##$NIST SOURCE=TYUGLMTE\n##SPECTROMETER/DATA SYSTEM=Beckman DU\n##XUNITS=Wavelength (nm)\n##YUNITS=Logarithm epsilon\n##XFACTOR=1.0\n##YFACTOR=1.0\n##FIRSTX=200.54\n##LASTX=230.41\n##FIRSTY=2.131\n##MAXX=230.41\n##MINX=200.54\n##MAXY=2.131\n##MINY=0.754\n##NPOINTS=62\n##$REF AUTHOR=Seidel, L.J.; Waldman, S.\n##$REF JOURNAL=J. Biol. Chem.\n##$REF VOLUME=197\n##$REF PAGE=285\n##$REF DATE=1952\n##XYPOINTS=(XY..XY)\n200.54,2.131\n200.95,2.124\n201.22,2.116\n201.49,2.108\n201.76,2.100\n202.04,2.091\n202.31,2.083\n202.58,2.074\n202.85,2.065\n203.26,2.057\n203.53,2.047\n203.80,2.038\n204.21,2.029\n204.48,2.019\n204.75,2.009\n205.02,1.998\n205.29,1.988\n205.70,1.977\n205.97,1.965\n206.24,1.954\n206.52,1.942\n206.92,1.930\n207.19,1.917\n207.60,1.906\n208.01,1.892\n208.28,1.879\n208.69,1.866\n208.96,1.851\n209.37,1.836\n209.64,1.821\n209.91,1.804\n210.45,1.789\n210.72,1.772\n211.00,1.754\n211.40,1.735\n211.81,1.717\n212.22,1.699\n212.62,1.677\n213.03,1.657\n213.44,1.633\n213.85,1.608\n214.25,1.584\n214.66,1.559\n215.20,1.532\n215.61,1.496\n216.02,1.465\n216.56,1.431\n217.24,1.400\n217.78,1.361\n218.46,1.324\n219.14,1.283\n219.95,1.244\n220.77,1.202\n221.58,1.147\n222.53,1.104\n223.48,1.055\n224.57,1.000\n225.52,0.937\n226.74,0.894\n227.96,0.846\n229.19,0.793\n230.41,0.754\n##END=\n'