b"##TITLE=3-Buten-2-one, 3-methyl-\n##JCAMP-DX=4.24\n##DATA TYPE=UV/VIS SPECTRUM\n##ORIGIN=INSTITUTE OF ENERGY PROBLEMS OF CHEMICAL PHYSICS, RAS\n##OWNER=INEP CP RAS, NIST OSRD\nCollection (C) 2007 copyright by the U.S. Secretary of Commerce\non behalf of the United States of America. All rights reserved.\n##CAS REGISTRY NO=814-78-8\n##MOLFORM=C5H8O\n##BP=98\n##SOURCE REFERENCE=RAS UV No. 20220\n##$NIST SQUIB=1969BOL/261\n##$NIST SOURCE=TYUGLMTE\n##SPECTROMETER/DATA SYSTEM=unknown\n##XUNITS=Wavelength (nm)\n##YUNITS=Logarithm epsilon\n##XFACTOR=1.0\n##YFACTOR=1.0\n##FIRSTX=216.39\n##LASTX=369.47\n##FIRSTY=3.927\n##MAXX=369.47\n##MINX=216.39\n##MAXY=3.927\n##MINY=0.466\n##NPOINTS=86\n##$REF AUTHOR=Bol'shakov, G.F.; et al.\n##$REF JOURNAL=Ultraviolet spectra of heteroorganic compounds\n##$REF PAGE=261\n##$REF DATE=1969\n##XYPOINTS=(XY..XY)\n216.39,3.927\n216.68,3.921\n216.98,3.916\n217.27,3.916\n217.56,3.910\n217.85,3.904\n218.15,3.899\n218.44,3.899\n218.73,3.893\n219.03,3.887\n219.32,3.882\n220.49,3.842\n222.54,3.797\n224.59,3.730\n226.59,3.627\n228.03,3.548\n229.65,3.467\n230.15,3.443\n232.20,3.291\n234.25,3.105\n236.29,2.914\n238.34,2.728\n240.39,2.565\n242.44,2.374\n244.49,2.256\n246.54,2.126\n248.59,2.036\n250.64,1.935\n252.68,1.845\n254.73,1.738\n256.78,1.614\n258.83,1.462\n260.88,1.293\n262.93,1.175\n264.98,1.102\n267.03,1.046\n269.08,1.012\n271.12,0.990\n273.17,0.978\n275.22,0.978\n277.27,0.984\n279.32,1.001\n281.37,1.012\n283.42,1.035\n285.47,1.046\n287.51,1.068\n289.56,1.102\n291.61,1.136\n293.66,1.181\n295.71,1.209\n297.76,1.243\n299.81,1.277\n301.86,1.293\n303.91,1.316\n305.95,1.322\n308.00,1.344\n310.05,1.361\n312.10,1.372\n314.15,1.378\n316.20,1.389\n318.25,1.400\n320.30,1.406\n322.35,1.406\n324.39,1.395\n326.44,1.383\n328.49,1.367\n330.54,1.355\n332.59,1.338\n334.64,1.322\n336.69,1.288\n338.74,1.254\n340.79,1.226\n342.83,1.181\n344.88,1.147\n346.93,1.096\n348.98,1.057\n351.03,1.012\n353.08,0.950\n355.13,0.905\n357.18,0.855\n359.22,0.798\n361.27,0.731\n363.32,0.674\n365.37,0.596\n367.42,0.528\n369.47,0.466\n##END=\n"