b'##TITLE=Thiophene, 3-nitro-\n##JCAMP-DX=4.24\n##DATA TYPE=UV/VIS SPECTRUM\n##ORIGIN=INSTITUTE OF ENERGY PROBLEMS OF CHEMICAL PHYSICS, RAS\n##OWNER=INEP CP RAS, NIST OSRD\nCollection (C) 2007 copyright by the U.S. Secretary of Commerce\non behalf of the United States of America. All rights reserved.\n##CAS REGISTRY NO=822-84-4\n##MOLFORM=C4H3NO2S\n##MP=74-75\n##SOURCE REFERENCE=RAS UV No. 15981\n##$NIST SQUIB=1973MAA/MAN1787\n##$NIST SOURCE=TYUGLMTE\n##SPECTROMETER/DATA SYSTEM=Beckman DB-G\n##XUNITS=Wavelength (nm)\n##YUNITS=Logarithm epsilon\n##XFACTOR=1.0\n##YFACTOR=1.0\n##FIRSTX=221.22\n##LASTX=318.23\n##FIRSTY=3.905\n##MAXX=318.23\n##MINX=221.22\n##MAXY=3.928\n##MINY=2.941\n##NPOINTS=81\n##$REF AUTHOR=Maag, H.; Manukian, B.K.\n##$REF JOURNAL=Helv. Chim. Acta\n##$REF VOLUME=56\n##$REF PAGE=1787\n##$REF DATE=1973\n##XYPOINTS=(XY..XY)\n221.22,3.905\n222.05,3.883\n222.32,3.858\n222.87,3.833\n223.15,3.808\n223.98,3.785\n224.25,3.760\n225.08,3.727\n225.91,3.705\n226.46,3.680\n227.01,3.655\n227.83,3.632\n228.11,3.607\n228.94,3.585\n230.31,3.565\n232.80,3.560\n234.45,3.576\n235.83,3.596\n237.48,3.615\n238.86,3.638\n239.96,3.660\n241.34,3.682\n242.72,3.705\n243.82,3.727\n244.65,3.749\n246.30,3.769\n247.13,3.794\n248.23,3.816\n249.88,3.833\n251.26,3.852\n252.36,3.875\n254.02,3.891\n255.39,3.914\n257.60,3.925\n260.08,3.928\n262.28,3.914\n264.21,3.900\n266.14,3.883\n267.52,3.863\n268.90,3.841\n270.28,3.819\n271.65,3.797\n272.76,3.774\n273.58,3.752\n274.96,3.733\n276.06,3.710\n277.17,3.688\n278.54,3.666\n279.65,3.643\n280.75,3.621\n281.85,3.599\n282.95,3.576\n284.33,3.554\n285.43,3.532\n286.81,3.510\n287.64,3.487\n288.46,3.465\n289.84,3.443\n290.67,3.418\n292.32,3.401\n293.43,3.379\n294.80,3.356\n295.91,3.334\n297.01,3.312\n298.11,3.290\n299.49,3.267\n300.87,3.245\n301.97,3.223\n303.07,3.200\n304.72,3.181\n305.55,3.159\n306.65,3.136\n308.03,3.114\n309.41,3.094\n310.51,3.072\n311.61,3.050\n312.99,3.028\n314.37,3.005\n315.47,2.983\n316.85,2.961\n318.23,2.941\n##END=\n'