b'##TITLE=Pentafluorobenzenesulfonyl chloride\n##JCAMP-DX=4.24\n##DATA TYPE=UV/VIS SPECTRUM\n##ORIGIN=INSTITUTE OF ENERGY PROBLEMS OF CHEMICAL PHYSICS, RAS\n##OWNER=INEP CP RAS, NIST OSRD\nCollection (C) 2007 copyright by the U.S. Secretary of Commerce\non behalf of the United States of America. All rights reserved.\n##CAS REGISTRY NO=832-53-1\n##MOLFORM=C6ClF5O2S\n##BP=81,0/5mm\n##SOURCE REFERENCE=RAS UV No. 18953\n##$NIST SQUIB=1967KOP142\n##$NIST SOURCE=TYUGLMTE\n##SPECTROMETER/DATA SYSTEM=SFD-2\n##XUNITS=Wavelength (nm)\n##YUNITS=Logarithm epsilon\n##XFACTOR=1.0\n##YFACTOR=1.0\n##FIRSTX=246.81\n##LASTX=376.31\n##FIRSTY=2.819\n##MAXX=376.31\n##MINX=246.81\n##MAXY=2.819\n##MINY=0.648\n##NPOINTS=86\n##$REF AUTHOR=(editor), Koptyug V.A.\n##$REF JOURNAL=Atlas of Spectra of Aromatic and Heterocyclic Compaunds\n##$REF VOLUME=1\n##$REF PAGE=142\n##$REF DATE=1967\n##XYPOINTS=(XY..XY)\n246.81,2.819\n247.33,2.819\n247.85,2.819\n248.37,2.808\n249.93,2.744\n251.49,2.696\n253.05,2.627\n254.61,2.568\n256.17,2.509\n257.73,2.488\n259.29,2.488\n260.85,2.493\n262.41,2.509\n263.97,2.536\n265.53,2.563\n267.09,2.595\n268.65,2.632\n270.21,2.669\n271.77,2.691\n273.33,2.701\n274.89,2.733\n276.45,2.755\n278.01,2.765\n279.57,2.760\n281.13,2.755\n282.70,2.744\n284.26,2.723\n285.82,2.712\n287.38,2.691\n288.94,2.632\n290.50,2.541\n292.06,2.429\n293.62,2.301\n295.18,2.205\n296.74,2.115\n298.30,1.997\n299.86,1.864\n301.42,1.773\n302.98,1.672\n304.54,1.576\n306.10,1.341\n307.66,1.203\n309.22,1.133\n310.78,1.075\n312.34,0.995\n313.90,0.877\n315.46,0.771\n317.02,0.717\n318.58,0.701\n320.14,0.696\n321.70,0.701\n323.26,0.712\n324.82,0.717\n326.38,0.733\n327.94,0.749\n329.50,0.771\n331.06,0.803\n332.62,0.829\n334.18,0.856\n335.74,0.893\n337.30,0.920\n338.87,0.941\n340.43,0.963\n341.99,0.979\n343.55,1.000\n345.11,1.011\n346.67,1.027\n348.23,1.027\n349.79,1.032\n351.35,1.027\n352.91,1.027\n354.47,1.016\n356.03,1.011\n357.59,1.000\n359.15,0.984\n360.71,0.963\n362.27,0.947\n363.83,0.931\n365.39,0.915\n366.95,0.883\n368.51,0.840\n370.07,0.792\n371.63,0.749\n373.19,0.701\n374.75,0.675\n376.31,0.648\n##END=\n'