b'##TITLE=2-Pyrrolidinone, 1-methyl-\n##JCAMP-DX=4.24\n##DATA TYPE=UV/VIS SPECTRUM\n##ORIGIN=INSTITUTE OF ENERGY PROBLEMS OF CHEMICAL PHYSICS, RAS\n##OWNER=INEP CP RAS, NIST OSRD\nCollection (C) 2007 copyright by the U.S. Secretary of Commerce\non behalf of the United States of America. All rights reserved.\n##CAS REGISTRY NO=872-50-4\n##MOLFORM=C5H9NO\n##MP=-24- -25\n##BP=90/ 15 mm\n##SOURCE REFERENCE=RAS UV No. 19954\n##$NIST SQUIB=1966JOHb10/4\n##$NIST SOURCE=TYUGLMTE\n##SPECTROMETER/DATA SYSTEM=Unicam SP 500\n##XUNITS=Wavelength (nm)\n##YUNITS=Logarithm epsilon\n##XFACTOR=1.0\n##YFACTOR=1.0\n##FIRSTX=190.63\n##LASTX=241.99\n##FIRSTY=3.952\n##MAXX=241.99\n##MINX=190.63\n##MAXY=3.957\n##MINY=1.093\n##NPOINTS=112\n##$REF AUTHOR=Johnson, E.A.\n##$REF JOURNAL=UV atlas of organic compounds\n##$REF VOLUME=1\n##$REF PAGE=B10/4\n##$REF DATE=1966\n##XYPOINTS=(XY..XY)\n190.63,3.952\n191.33,3.954\n192.04,3.955\n192.75,3.957\n193.47,3.955\n194.19,3.954\n194.92,3.952\n195.65,3.947\n196.31,3.942\n196.97,3.936\n197.55,3.928\n198.22,3.920\n198.81,3.912\n199.40,3.904\n200.00,3.894\n201.38,3.864\n201.46,3.862\n201.55,3.861\n201.64,3.859\n201.72,3.858\n201.81,3.856\n201.90,3.854\n201.99,3.853\n202.07,3.851\n202.16,3.850\n202.25,3.848\n202.33,3.846\n202.42,3.845\n202.51,3.843\n202.60,3.842\n202.69,3.840\n202.77,3.838\n202.86,3.837\n202.95,3.835\n203.04,3.834\n203.12,3.832\n203.21,3.830\n203.30,3.829\n203.57,3.824\n204.01,3.814\n204.46,3.800\n204.90,3.790\n205.35,3.776\n205.80,3.765\n206.26,3.750\n206.71,3.738\n207.17,3.723\n207.63,3.707\n208.09,3.693\n208.56,3.677\n209.02,3.661\n209.49,3.643\n209.96,3.627\n210.43,3.608\n210.91,3.587\n211.38,3.566\n211.86,3.544\n212.34,3.526\n212.82,3.504\n213.31,3.480\n213.80,3.459\n214.29,3.437\n214.78,3.413\n215.27,3.389\n215.77,3.363\n216.27,3.336\n216.77,3.310\n217.27,3.283\n217.78,3.256\n218.28,3.226\n218.79,3.195\n219.31,3.163\n219.82,3.131\n220.34,3.096\n220.86,3.062\n221.38,3.029\n221.91,2.992\n222.43,2.947\n222.96,2.912\n223.50,2.877\n224.03,2.837\n224.57,2.790\n225.11,2.742\n225.65,2.691\n226.20,2.637\n226.74,2.582\n227.29,2.526\n227.85,2.469\n228.40,2.411\n228.96,2.354\n229.52,2.296\n230.09,2.238\n230.66,2.184\n231.23,2.130\n231.80,2.069\n232.37,2.006\n232.95,1.954\n233.53,1.893\n234.12,1.838\n234.70,1.784\n235.29,1.730\n235.89,1.677\n236.48,1.618\n237.08,1.562\n237.68,1.507\n238.29,1.445\n238.90,1.386\n239.51,1.328\n240.12,1.267\n240.74,1.198\n241.36,1.142\n241.99,1.093\n##END=\n'