b'##TITLE=6-Chloropurine\n##JCAMP-DX=4.24\n##DATA TYPE=UV/VIS SPECTRUM\n##ORIGIN=INSTITUTE OF ENERGY PROBLEMS OF CHEMICAL PHYSICS, RAS\n##OWNER=INEP CP RAS, NIST OSRD\nCollection (C) 2007 copyright by the U.S. Secretary of Commerce\non behalf of the United States of America. All rights reserved.\n##CAS REGISTRY NO=87-42-3\n##MOLFORM=C5H3ClN4\n##MP=175-7 dec\n##SOURCE REFERENCE=RAS UV No. 2486\n##$NIST SQUIB=1954BEN/RUS6073-6077\n##$NIST SOURCE=TSGMTE\n##SPECTROMETER/DATA SYSTEM=Beckman DU\n##XUNITS=Wavelength (nm)\n##YUNITS=Logarithm epsilon\n##XFACTOR=1.000000\n##YFACTOR=1.000000\n##FIRSTX=227.9725\n##LASTX=284.7128\n##FIRSTY=3.31309\n##MAXX=284.713\n##MINX=227.973\n##MAXY=3.95931\n##MINY=2.72243\n##NPOINTS=192\n##$REF AUTHOR=Bendich, A.; Russell, P.J.; Fox, J.J.\n##$REF TITLE=The synthesis and properties of 6-chloropurine and purine\n##$REF JOURNAL=J. Am. Chem. Soc.\n##$REF VOLUME=76\n##$REF PAGE=6073-6077\n##$REF DATE=1954\n##XYPOINTS=(XY..XY)\n227.9725,3.313086\n228.1159,3.316975\n228.2667,3.320665\n228.4212,3.324243\n230.0269,3.362983\n230.1761,3.368982\n230.3188,3.371543\n230.5774,3.372914\n231.3771,3.397098\n231.4005,3.398824\n231.4314,3.400407\n231.4659,3.401917\n232.8120,3.428706\n232.8477,3.430673\n232.8834,3.432632\n232.9191,3.434582\n235.0634,3.477883\n235.0652,3.479648\n235.0670,3.481406\n235.0688,3.483156\n235.6022,3.490711\n235.8467,3.497465\n236.0911,3.504063\n236.3354,3.510458\n237.3217,3.528172\n237.3451,3.529449\n237.3759,3.530622\n237.4105,3.531741\n237.9465,3.540694\n238.1910,3.546719\n238.4354,3.552614\n238.6797,3.558337\n241.5587,3.608159\n241.7337,3.611673\n241.9125,3.615158\n242.0988,3.618613\n244.0698,3.644895\n244.3120,3.648114\n244.5542,3.651310\n244.7964,3.654482\n247.4850,3.682124\n247.5948,3.683999\n247.7121,3.685865\n247.8332,3.687723\n248.2832,3.693236\n248.4269,3.695060\n248.5782,3.696874\n248.7332,3.698681\n249.6359,3.710997\n250.0449,3.719285\n250.4554,3.727417\n250.8691,3.735399\n251.2876,3.743236\n252.1957,3.757165\n252.5148,3.764338\n252.8339,3.771382\n253.1529,3.778291\n253.4719,3.785056\n254.0198,3.795823\n254.3214,3.801825\n254.6267,3.807744\n254.9396,3.813583\n255.1381,3.819011\n255.2607,3.820804\n255.3833,3.822539\n255.5058,3.824241\n255.9574,3.836429\n256.2974,3.843825\n256.6410,3.851050\n256.9921,3.858132\n257.3510,3.866234\n257.6003,3.871037\n257.8496,3.875765\n258.0987,3.880398\n258.2736,3.882478\n258.3984,3.884849\n258.5232,3.887207\n258.6480,3.889553\n259.1140,3.899102\n259.3870,3.904218\n259.6676,3.909253\n259.9518,3.914189\n260.4957,3.920757\n260.6600,3.925153\n260.9455,3.929714\n261.5969,3.938264\n262.3314,3.945844\n262.7485,3.949240\n263.1656,3.952609\n263.5827,3.955953\n264.6612,3.959306\n265.3604,3.958323\n265.8167,3.956779\n266.4074,3.953551\n266.9211,3.949522\n267.1378,3.946571\n267.3619,3.943560\n267.5897,3.940508\n267.9354,3.936896\n267.9843,3.936010\n268.0369,3.935102\n268.0970,3.934153\n268.6368,3.933137\n268.9646,3.927569\n269.2219,3.923320\n269.4339,3.919693\n269.6260,3.915960\n269.8233,3.911368\n270.0512,3.905126\n270.4693,3.896600\n270.6831,3.892123\n270.9043,3.887577\n271.1291,3.882938\n271.3062,3.879228\n271.3516,3.876810\n271.4008,3.874379\n271.4574,3.871933\n271.6110,3.865446\n271.8993,3.857206\n272.1334,3.851363\n272.3565,3.843944\n272.6107,3.836570\n272.7298,3.830130\n272.8787,3.824839\n273.0731,3.818463\n273.3285,3.808625\n273.7444,3.796861\n273.7824,3.791862\n273.8647,3.788232\n273.9045,3.784049\n274.2473,3.777469\n274.2909,3.773517\n274.3383,3.769528\n274.3932,3.765501\n274.7228,3.751694\n274.7245,3.752634\n274.7263,3.753573\n274.7281,3.754509\n274.8870,3.748840\n274.9786,3.741653\n275.0844,3.735912\n275.2091,3.730146\n275.3572,3.722798\n275.5332,3.712191\n275.8565,3.702917\n275.9952,3.694461\n276.1355,3.685823\n276.2790,3.676979\n276.4271,3.667905\n276.6537,3.649715\n276.8180,3.640402\n276.9822,3.630869\n277.1464,3.621087\n277.3106,3.611028\n277.4694,3.603120\n277.4936,3.594376\n277.5935,3.586252\n277.7691,3.575015\n278.0205,3.556485\n278.2615,3.530593\n278.2651,3.533706\n278.2686,3.536748\n278.2720,3.539671\n278.4402,3.523563\n278.5329,3.510841\n278.6331,3.497681\n278.7370,3.483997\n279.2229,3.443162\n279.3809,3.424872\n279.5463,3.405642\n279.7154,3.385452\n280.0362,3.362246\n280.1418,3.348688\n280.3154,3.327136\n280.5363,3.302248\n280.7840,3.279703\n281.0382,3.266368\n281.3561,3.230694\n281.5408,3.206514\n281.7162,3.186641\n281.9081,3.166304\n282.1423,3.139695\n282.4447,3.099301\n282.8657,3.049166\n283.0400,3.010613\n283.3128,2.968231\n283.6107,2.919872\n283.8601,2.862374\n284.1989,2.784606\n284.3652,2.765247\n284.5353,2.744677\n284.7128,2.722434\n##END=\n'