b'##TITLE=Benzene, pentafluoronitro-\n##JCAMP-DX=4.24\n##DATA TYPE=UV/VIS SPECTRUM\n##ORIGIN=INSTITUTE OF ENERGY PROBLEMS OF CHEMICAL PHYSICS, RAS\n##OWNER=INEP CP RAS, NIST OSRD\nCollection (C) 2007 copyright by the U.S. Secretary of Commerce\non behalf of the United States of America. All rights reserved.\n##CAS REGISTRY NO=880-78-4\n##MOLFORM=C6F5NO2\n##BP=158.0-160.0\n##SOURCE REFERENCE=RAS UV No. 18955\n##$NIST SQUIB=1967KOP113\n##$NIST SOURCE=TYUGLMTE\n##SPECTROMETER/DATA SYSTEM=SFD-2\n##XUNITS=Wavelength (nm)\n##YUNITS=Logarithm epsilon\n##XFACTOR=1.0\n##YFACTOR=1.0\n##FIRSTX=228.49\n##LASTX=386.65\n##FIRSTY=3.683\n##MAXX=386.65\n##MINX=228.49\n##MAXY=3.683\n##MINY=1.887\n##NPOINTS=57\n##$REF AUTHOR=(editor), Koptyug V.A.\n##$REF JOURNAL=Atlas of Spectra of Aromatic and Heterocyclic Compounds\n##$REF VOLUME=1\n##$REF PAGE=113\n##$REF DATE=1967\n##XYPOINTS=(XY..XY)\n228.49,3.683\n232.91,3.668\n237.33,3.663\n241.75,3.658\n246.17,3.649\n250.10,3.629\n253.54,3.599\n256.00,3.564\n257.96,3.525\n259.43,3.485\n260.91,3.441\n262.87,3.401\n265.33,3.362\n267.78,3.322\n269.75,3.282\n271.22,3.243\n273.68,3.203\n277.12,3.173\n281.05,3.149\n284.98,3.129\n288.91,3.104\n292.83,3.079\n295.78,3.050\n298.24,3.010\n300.20,2.971\n302.17,2.931\n304.13,2.891\n306.10,2.852\n308.06,2.812\n310.52,2.773\n312.97,2.733\n315.43,2.693\n318.38,2.664\n321.81,2.634\n325.74,2.609\n329.67,2.584\n333.60,2.560\n337.53,2.540\n341.46,2.515\n345.39,2.490\n348.83,2.466\n352.27,2.436\n355.22,2.406\n358.16,2.372\n360.62,2.337\n363.07,2.302\n365.53,2.268\n367.99,2.233\n370.44,2.198\n372.90,2.159\n374.86,2.119\n376.83,2.080\n378.79,2.040\n380.76,2.000\n383.21,1.966\n385.18,1.926\n386.65,1.887\n##END=\n'