b'##TITLE=Ethene, 1,1-dimethoxy-\n##JCAMP-DX=4.24\n##DATA TYPE=UV/VIS SPECTRUM\n##ORIGIN=INSTITUTE OF ENERGY PROBLEMS OF CHEMICAL PHYSICS, RAS\n##OWNER=INEP CP RAS, NIST OSRD\nCollection (C) 2007 copyright by the U.S. Secretary of Commerce\non behalf of the United States of America. All rights reserved.\n##CAS REGISTRY NO=922-69-0\n##MOLFORM=C4H8O2\n##SOURCE REFERENCE=RAS UV No. 16221\n##$NIST SQUIB=1972TAD/2121\n##$NIST SOURCE=TYUGLMTE\n##SPECTROMETER/DATA SYSTEM=unknown\n##XUNITS=Wavelength (nm)\n##YUNITS=Logarithm epsilon\n##XFACTOR=1.0\n##YFACTOR=1.0\n##FIRSTX=210.24\n##LASTX=270.47\n##FIRSTY=3.263\n##MAXX=270.47\n##MINX=210.24\n##MAXY=3.332\n##MINY=0.03\n##NPOINTS=56\n##$REF AUTHOR=Tada, M.; et al.\n##$REF JOURNAL=Tetrahedron\n##$REF VOLUME=28\n##$REF PAGE=2121\n##$REF DATE=1972\n##XYPOINTS=(XY..XY)\n210.24,3.263\n210.47,3.268\n210.71,3.272\n210.94,3.277\n211.18,3.282\n211.41,3.286\n211.65,3.291\n211.88,3.295\n212.12,3.300\n214.00,3.328\n214.94,3.332\n215.88,3.332\n216.82,3.323\n217.76,3.309\n218.71,3.268\n219.65,3.240\n220.59,3.212\n222.47,3.120\n224.35,3.028\n225.29,2.973\n227.18,2.853\n229.06,2.743\n230.00,2.655\n230.94,2.614\n231.88,2.554\n233.76,2.425\n235.65,2.291\n237.53,2.116\n238.47,2.011\n240.35,1.831\n241.29,1.720\n242.24,1.656\n243.18,1.550\n244.12,1.416\n245.06,1.334\n246.00,1.200\n246.94,1.089\n247.88,0.997\n248.82,0.855\n250.71,0.721\n252.59,0.564\n253.53,0.528\n254.47,0.454\n255.41,0.399\n256.35,0.371\n258.24,0.270\n259.18,0.237\n260.12,0.214\n262.00,0.168\n262.94,0.145\n263.88,0.127\n264.82,0.109\n267.65,0.062\n268.59,0.044\n269.53,0.035\n270.47,0.030\n##END=\n'