b'##TITLE=Thioacetic acid, o-ethyl ester\n##JCAMP-DX=4.24\n##DATA TYPE=UV/VIS SPECTRUM\n##ORIGIN=INSTITUTE OF ENERGY PROBLEMS OF CHEMICAL PHYSICS, RAS\n##OWNER=INEP CP RAS, NIST OSRD\nCollection (C) 2007 copyright by the U.S. Secretary of Commerce\non behalf of the United States of America. All rights reserved.\n##CAS REGISTRY NO=926-67-0\n##MOLFORM=C4H8OS\n##BP=109-110\n##SOURCE REFERENCE=RAS UV No. 19965\n##$NIST SQUIB=1966JANb14/1\n##$NIST SOURCE=TYUGLMTE\n##SPECTROMETER/DATA SYSTEM=Beckman DU\n##XUNITS=Wavelength (nm)\n##YUNITS=Logarithm epsilon\n##XFACTOR=1.0\n##YFACTOR=1.0\n##FIRSTX=228.44\n##LASTX=414.29\n##FIRSTY=3.657\n##MAXX=414.29\n##MINX=228.44\n##MAXY=3.919\n##MINY=0.139\n##NPOINTS=203\n##$REF AUTHOR=Janssen, M.J.\n##$REF JOURNAL=UV atlas of organic compouds\n##$REF VOLUME=1\n##$REF PAGE=B14/1\n##$REF DATE=1966\n##XYPOINTS=(XY..XY)\n228.44,3.657\n229.00,3.674\n229.34,3.691\n229.79,3.709\n230.24,3.726\n230.70,3.743\n231.27,3.760\n231.73,3.777\n232.31,3.792\n232.89,3.809\n233.48,3.824\n234.18,3.839\n234.89,3.854\n235.60,3.867\n236.44,3.880\n237.28,3.891\n238.13,3.901\n239.11,3.910\n240.22,3.914\n241.34,3.919\n242.47,3.916\n243.48,3.910\n244.50,3.899\n245.53,3.889\n246.44,3.878\n247.23,3.865\n247.91,3.853\n248.53,3.838\n249.03,3.827\n249.62,3.814\n250.21,3.797\n250.83,3.780\n251.50,3.762\n252.04,3.745\n252.59,3.724\n253.14,3.702\n253.69,3.681\n254.24,3.657\n254.80,3.627\n255.36,3.604\n255.92,3.578\n256.48,3.548\n257.05,3.520\n257.61,3.492\n258.19,3.462\n258.76,3.430\n259.33,3.402\n259.91,3.368\n260.49,3.329\n261.08,3.293\n261.67,3.254\n262.25,3.218\n262.85,3.179\n263.44,3.139\n264.04,3.096\n264.64,3.059\n265.24,3.021\n265.85,2.971\n266.45,2.929\n267.06,2.869\n267.68,2.821\n268.29,2.772\n268.91,2.712\n269.54,2.656\n270.16,2.605\n270.79,2.549\n271.42,2.481\n272.05,2.416\n272.69,2.346\n273.33,2.271\n273.97,2.211\n274.62,2.119\n275.27,2.048\n275.92,1.966\n276.58,1.894\n277.23,1.821\n277.90,1.748\n278.56,1.675\n279.23,1.606\n279.90,1.542\n280.57,1.456\n281.25,1.388\n281.93,1.317\n282.62,1.244\n283.30,1.178\n283.99,1.101\n284.69,1.039\n285.38,0.968\n286.09,0.886\n286.79,0.822\n287.50,0.730\n288.21,0.657\n288.92,0.593\n289.64,0.522\n290.36,0.466\n291.09,0.415\n291.82,0.366\n292.55,0.331\n293.29,0.291\n294.59,0.239\n295.15,0.222\n295.90,0.205\n297.03,0.190\n298.74,0.186\n300.28,0.192\n301.64,0.205\n302.82,0.220\n304.00,0.235\n305.00,0.250\n306.00,0.267\n307.01,0.282\n307.82,0.299\n308.84,0.316\n309.66,0.334\n310.49,0.351\n311.53,0.368\n312.15,0.385\n312.99,0.402\n313.83,0.419\n314.47,0.436\n315.32,0.454\n316.18,0.471\n316.82,0.488\n317.68,0.505\n318.34,0.524\n318.99,0.541\n319.65,0.559\n320.53,0.576\n321.19,0.595\n321.85,0.612\n322.75,0.629\n323.42,0.646\n324.32,0.664\n325.22,0.681\n325.91,0.700\n326.82,0.717\n327.51,0.736\n328.43,0.754\n329.13,0.771\n330.30,0.788\n331.00,0.805\n331.94,0.822\n332.65,0.839\n333.61,0.856\n334.57,0.874\n335.29,0.891\n336.26,0.908\n337.23,0.925\n337.96,0.942\n339.19,0.959\n339.93,0.976\n341.18,0.994\n341.93,1.013\n343.19,1.030\n344.20,1.047\n345.22,1.064\n346.51,1.081\n347.54,1.099\n348.84,1.116\n350.15,1.133\n351.47,1.148\n352.80,1.163\n354.15,1.178\n355.77,1.193\n357.41,1.208\n359.33,1.221\n361.28,1.231\n363.26,1.242\n365.54,1.251\n368.14,1.257\n370.77,1.259\n373.45,1.253\n375.86,1.242\n377.99,1.229\n379.64,1.216\n381.21,1.200\n382.60,1.184\n383.43,1.174\n384.15,1.164\n384.76,1.157\n385.41,1.148\n386.12,1.139\n386.78,1.131\n388.07,1.114\n389.36,1.090\n390.67,1.066\n391.98,1.036\n393.31,1.006\n394.64,0.974\n395.98,0.936\n397.33,0.901\n398.69,0.863\n400.06,0.822\n401.36,0.780\n402.84,0.724\n404.22,0.666\n405.63,0.606\n407.05,0.541\n408.48,0.475\n409.91,0.394\n411.36,0.310\n412.82,0.226\n414.29,0.139\n##END=\n'