b'##TITLE=Pyrrolidine, 1-nitroso-\n##JCAMP-DX=4.24\n##DATA TYPE=UV/VIS SPECTRUM\n##ORIGIN=INSTITUTE OF ENERGY PROBLEMS OF CHEMICAL PHYSICS, RAS\n##OWNER=INEP CP RAS, NIST OSRD\nCollection (C) 2007 copyright by the U.S. Secretary of Commerce\non behalf of the United States of America. All rights reserved.\n##CAS REGISTRY NO=930-55-2\n##MOLFORM=C4H8N2O\n##BP=214\n##SOURCE REFERENCE=RAS UV No. 5789\n##$NIST SQUIB=1959ZAH/SVA347-358\n##$NIST SOURCE=TSGMTE\n##SPECTROMETER/DATA SYSTEM=Perkin- Elmer 12B\n##XUNITS=Wavelength (nm)\n##YUNITS=Logarithm epsilon\n##XFACTOR=1.000000\n##YFACTOR=1.000000\n##FIRSTX=247.8547\n##LASTX=371.6303\n##FIRSTY=3.65153\n##MAXX=371.63\n##MINX=247.855\n##MAXY=3.67682\n##MINY=1.09192\n##NPOINTS=80\n##$REF AUTHOR=Zahradnik, R.; Svatek, E.; Chvaril, M.\n##$REF TITLE=Nitrosamine sekundarer amine. III. Spektroskopische und polarographische studie\n##$REF JOURNAL=Collect. Czech. Chem. Commun.\n##$REF VOLUME=24\n##$REF PAGE=347-358\n##$REF DATE=1959\n##XYPOINTS=(XY..XY)\n247.8547,3.651529\n247.8547,3.651529\n247.9253,3.659962\n248.0092,3.668394\n248.1198,3.676823\n248.2714,3.648294\n248.6877,3.644791\n249.1040,3.641154\n249.1040,3.641154\n249.4486,3.624540\n250.0240,3.602174\n250.7859,3.575049\n251.6902,3.544161\n252.6929,3.510504\n253.7498,3.475073\n254.8168,3.438863\n255.8498,3.402869\n256.8047,3.368085\n257.6372,3.335506\n258.3035,3.306128\n258.4225,3.240507\n258.7593,3.280944\n258.8629,3.247139\n258.9604,3.260949\n259.1296,3.167488\n259.1846,3.160225\n259.2527,3.152828\n259.3473,3.145159\n273.4231,1.979582\n273.4266,1.983176\n273.4301,1.986637\n273.4333,1.989829\n285.3025,1.379726\n285.5334,1.370661\n285.7643,1.361594\n285.9952,1.352528\n302.4359,1.538973\n302.7535,1.538942\n303.0979,1.538907\n303.4555,1.538871\n303.4555,1.538871\n303.4591,1.542466\n303.4625,1.545927\n303.4657,1.549119\n307.0193,1.624122\n307.7443,1.631619\n308.0138,1.636750\n308.0587,1.643912\n309.5809,1.666670\n309.7245,1.672661\n309.8948,1.678517\n310.0781,1.684103\n314.1091,1.756646\n314.7870,1.772677\n315.4781,1.788439\n316.1956,1.804064\n323.8204,1.931711\n324.3066,1.935882\n324.8062,1.940053\n325.3324,1.944220\n332.3298,1.983909\n332.9896,1.983843\n333.6493,1.983777\n334.3090,1.983711\n338.2968,1.952563\n339.3776,1.953637\n340.4582,1.954579\n341.5386,1.955251\n341.5386,1.955251\n341.9334,1.945744\n342.5172,1.938495\n343.7901,1.927292\n365.1559,1.336734\n365.2852,1.328280\n365.4412,1.319824\n365.6106,1.311366\n370.9334,1.114894\n371.1660,1.107458\n371.3982,1.099753\n371.6303,1.091917\n##END=\n'