b'##TITLE=Pyrimidine, 2-methoxy-\n##JCAMP-DX=4.24\n##DATA TYPE=UV/VIS SPECTRUM\n##ORIGIN=INSTITUTE OF ENERGY PROBLEMS OF CHEMICAL PHYSICS, RAS\n##OWNER=INEP CP RAS, NIST OSRD\nCollection (C) 2007 copyright by the U.S. Secretary of Commerce\non behalf of the United States of America. All rights reserved.\n##CAS REGISTRY NO=931-63-5\n##MOLFORM=C5H6N2O\n##SOURCE REFERENCE=RAS UV No. 11033\n##$NIST SQUIB=1952BOA/MCO3716\n##$NIST SOURCE=TYUGLMTE\n##SPECTROMETER/DATA SYSTEM=n.i.g.\n##XUNITS=Wavelength (nm)\n##YUNITS=Logarithm epsilon\n##XFACTOR=1.0\n##YFACTOR=1.0\n##FIRSTX=206.29\n##LASTX=280.54\n##FIRSTY=3.907\n##MAXX=280.54\n##MINX=206.29\n##MAXY=3.907\n##MINY=2.202\n##NPOINTS=127\n##$REF AUTHOR=Boarland, M.P.V.; McOmie, J.F.W.\n##$REF JOURNAL=J. Chem. Soc.\n##$REF PAGE=3716\n##$REF DATE=1952\n##XYPOINTS=(XY..XY)\n206.29,3.907\n206.59,3.907\n206.89,3.904\n207.19,3.904\n207.49,3.881\n208.08,3.830\n208.68,3.795\n209.28,3.760\n209.88,3.699\n210.48,3.657\n211.08,3.625\n211.68,3.551\n212.28,3.503\n212.87,3.471\n213.47,3.407\n214.07,3.359\n214.67,3.324\n215.27,3.244\n215.87,3.189\n216.47,3.138\n217.07,3.067\n217.66,3.019\n218.26,2.929\n218.86,2.881\n219.46,2.821\n220.06,2.696\n220.66,2.651\n221.26,2.593\n221.86,2.564\n222.46,2.542\n223.05,2.510\n223.65,2.484\n224.25,2.455\n224.85,2.455\n225.45,2.452\n226.05,2.442\n226.65,2.442\n227.25,2.455\n227.84,2.471\n228.44,2.478\n229.04,2.484\n229.64,2.506\n230.24,2.535\n230.84,2.564\n231.44,2.603\n232.04,2.638\n232.63,2.702\n233.23,2.756\n233.83,2.795\n234.43,2.821\n235.03,2.869\n235.63,2.910\n236.23,2.942\n236.83,2.955\n237.43,2.987\n238.02,3.010\n238.62,3.042\n239.22,3.071\n239.82,3.099\n240.42,3.115\n241.02,3.151\n241.62,3.186\n242.22,3.224\n242.81,3.247\n243.41,3.276\n244.01,3.301\n244.61,3.333\n245.21,3.362\n245.81,3.394\n246.41,3.423\n247.01,3.439\n247.60,3.471\n248.20,3.500\n248.80,3.526\n249.40,3.545\n250.00,3.561\n250.60,3.580\n251.20,3.593\n251.80,3.606\n252.40,3.619\n252.99,3.635\n253.59,3.647\n254.19,3.660\n254.79,3.683\n255.39,3.689\n255.99,3.692\n256.59,3.689\n257.19,3.679\n257.78,3.673\n258.38,3.667\n258.98,3.667\n259.58,3.667\n260.18,3.667\n260.78,3.667\n261.38,3.660\n261.98,3.647\n262.57,3.625\n263.17,3.590\n263.77,3.561\n264.37,3.529\n264.97,3.497\n265.57,3.465\n266.17,3.423\n266.77,3.388\n267.37,3.356\n267.96,3.324\n268.56,3.266\n269.16,3.218\n269.76,3.186\n270.36,3.141\n270.96,3.054\n271.56,3.019\n272.16,2.987\n272.75,2.917\n273.35,2.843\n273.95,2.756\n274.55,2.705\n275.15,2.660\n275.75,2.580\n276.35,2.535\n276.95,2.503\n277.54,2.436\n278.14,2.385\n278.74,2.333\n279.34,2.276\n279.94,2.231\n280.54,2.202\n##END=\n'