b'##TITLE=5-Aminouracil\n##JCAMP-DX=4.24\n##DATA TYPE=UV/VIS SPECTRUM\n##ORIGIN=INSTITUTE OF ENERGY PROBLEMS OF CHEMICAL PHYSICS, RAS\n##OWNER=INEP CP RAS, NIST OSRD\nCollection (C) 2007 copyright by the U.S. Secretary of Commerce\non behalf of the United States of America. All rights reserved.\n##CAS REGISTRY NO=932-52-5\n##MOLFORM=C4H5N3O2\n##MP=> 300\n##SOURCE REFERENCE=RAS UV No. 10532\n##$NIST SQUIB=1949STI1470\n##$NIST SOURCE=TYUGLMTE\n##SPECTROMETER/DATA SYSTEM=n.i.g.\n##XUNITS=Wavelength (nm)\n##YUNITS=Logarithm epsilon\n##XFACTOR=1.0\n##YFACTOR=1.0\n##FIRSTX=221.02\n##LASTX=317.62\n##FIRSTY=3.999\n##MAXX=317.62\n##MINX=221.02\n##MAXY=4.017\n##MINY=3.307\n##NPOINTS=71\n##$REF AUTHOR=Stimson, M.M.\n##$REF JOURNAL=J. Am. Chem. Soc.\n##$REF VOLUME=71\n##$REF PAGE=1470\n##$REF DATE=1949\n##XYPOINTS=(XY..XY)\n221.02,3.999\n222.39,4.008\n224.38,4.016\n226.46,4.017\n227.74,4.014\n229.18,4.006\n230.54,3.996\n231.90,3.982\n233.27,3.959\n234.63,3.935\n235.69,3.913\n237.35,3.882\n238.71,3.853\n240.07,3.822\n241.43,3.792\n242.55,3.769\n244.15,3.734\n245.43,3.709\n246.87,3.683\n248.23,3.658\n249.59,3.636\n250.64,3.622\n252.01,3.605\n253.67,3.590\n255.03,3.578\n256.33,3.573\n257.98,3.574\n259.12,3.578\n260.51,3.590\n261.84,3.608\n263.20,3.625\n264.56,3.642\n265.92,3.663\n267.28,3.683\n268.64,3.703\n270.00,3.721\n271.21,3.739\n272.72,3.764\n274.08,3.788\n275.44,3.814\n276.80,3.836\n278.16,3.853\n279.52,3.869\n280.88,3.885\n282.24,3.897\n283.61,3.909\n284.79,3.918\n286.09,3.927\n287.69,3.932\n289.10,3.932\n290.41,3.926\n291.77,3.921\n293.13,3.912\n294.49,3.900\n295.85,3.888\n297.21,3.875\n298.57,3.863\n299.93,3.846\n301.29,3.825\n302.65,3.803\n303.64,3.784\n305.37,3.743\n306.86,3.705\n308.03,3.667\n309.46,3.602\n311.11,3.517\n312.18,3.463\n313.58,3.414\n314.90,3.372\n316.39,3.334\n317.62,3.307\n##END=\n'