b'##TITLE=2,3-Butanedione, dioxime\n##JCAMP-DX=4.24\n##DATA TYPE=UV/VIS SPECTRUM\n##ORIGIN=INSTITUTE OF ENERGY PROBLEMS OF CHEMICAL PHYSICS, RAS\n##OWNER=INEP CP RAS, NIST OSRD\nCollection (C) 2007 copyright by the U.S. Secretary of Commerce\non behalf of the United States of America. All rights reserved.\n##CAS REGISTRY NO=95-45-4\n##MOLFORM=C4H8N2O2\n##MP=234\n##SOURCE REFERENCE=RAS UV No. 19723\n##$NIST SQUIB=1961LAN109\n##$NIST SOURCE=TYUGLMTE\n##SPECTROMETER/DATA SYSTEM=Beckman DU\n##XUNITS=Wavelength (nm)\n##YUNITS=Logarithm epsilon\n##XFACTOR=1.0\n##YFACTOR=1.0\n##FIRSTX=213.04\n##LASTX=298.87\n##FIRSTY=4.047\n##MAXX=298.87\n##MINX=213.04\n##MAXY=4.264\n##MINY=1.884\n##NPOINTS=109\n##$REF AUTHOR=Lang (editor), L.\n##$REF JOURNAL=Absorption Spectra in the Ultraviolet and Vsible Region\n##$REF VOLUME=2\n##$REF PAGE=109\n##$REF DATE=1961\n##XYPOINTS=(XY..XY)\n213.04,4.047\n214.05,4.071\n214.90,4.095\n215.91,4.115\n216.76,4.139\n217.78,4.159\n218.96,4.179\n220.15,4.196\n221.33,4.213\n222.69,4.230\n224.04,4.244\n225.56,4.254\n227.09,4.264\n228.61,4.261\n229.97,4.247\n231.32,4.237\n232.51,4.220\n233.69,4.203\n234.88,4.183\n236.06,4.162\n237.08,4.142\n238.09,4.122\n238.94,4.098\n239.96,4.074\n240.80,4.047\n241.82,4.023\n242.50,3.996\n243.34,3.973\n244.02,3.945\n244.87,3.922\n245.37,3.895\n246.39,3.871\n247.07,3.844\n247.91,3.817\n248.42,3.789\n248.93,3.762\n249.61,3.735\n249.94,3.705\n250.28,3.674\n250.79,3.647\n251.30,3.617\n251.81,3.589\n252.48,3.562\n253.33,3.539\n254.18,3.511\n255.02,3.488\n255.70,3.461\n256.55,3.433\n257.06,3.406\n257.56,3.379\n258.24,3.352\n258.75,3.322\n259.26,3.294\n259.76,3.267\n260.27,3.240\n260.78,3.213\n261.29,3.186\n261.97,3.159\n262.47,3.132\n262.98,3.105\n263.66,3.077\n264.17,3.050\n264.67,3.023\n265.18,2.996\n265.86,2.969\n266.37,2.938\n266.88,2.911\n267.55,2.884\n268.06,2.854\n268.57,2.826\n269.25,2.799\n269.75,2.772\n270.26,2.745\n270.94,2.718\n271.45,2.691\n271.95,2.664\n272.63,2.637\n273.14,2.609\n273.65,2.582\n274.16,2.555\n274.66,2.528\n275.34,2.501\n275.85,2.470\n276.36,2.443\n277.03,2.416\n277.54,2.389\n278.05,2.362\n278.73,2.335\n279.23,2.304\n279.74,2.277\n280.42,2.250\n280.93,2.223\n281.44,2.196\n282.11,2.169\n282.62,2.142\n283.47,2.118\n284.31,2.091\n285.16,2.067\n286.18,2.043\n287.36,2.023\n288.38,2.003\n289.56,1.986\n290.75,1.969\n292.10,1.952\n293.46,1.935\n294.81,1.921\n296.16,1.908\n297.52,1.894\n298.87,1.884\n##END=\n'