b'##TITLE=2-Imidazolidinethione\n##JCAMP-DX=4.24\n##DATA TYPE=UV/VIS SPECTRUM\n##ORIGIN=INSTITUTE OF ENERGY PROBLEMS OF CHEMICAL PHYSICS, RAS\n##OWNER=INEP CP RAS, NIST OSRD\nCollection (C) 2007 copyright by the U.S. Secretary of Commerce\non behalf of the United States of America. All rights reserved.\n##CAS REGISTRY NO=96-45-7\n##MOLFORM=C3H6N2S\n##MP=203\n##SOURCE REFERENCE=RAS UV No. 20241\n##$NIST SQUIB=1969BOL/361\n##$NIST SOURCE=TYUGLMTE\n##SPECTROMETER/DATA SYSTEM=unknown\n##XUNITS=Wavelength (nm)\n##YUNITS=Logarithm epsilon\n##XFACTOR=1.0\n##YFACTOR=1.0\n##FIRSTX=211.5\n##LASTX=257.85\n##FIRSTY=3.936\n##MAXX=257.85\n##MINX=211.5\n##MAXY=4.098\n##MINY=2.569\n##NPOINTS=67\n##$REF AUTHOR=Bolshakov, G.F.; et al.\n##$REF JOURNAL=Ultraviolet Spectra of Heteroorganic Compounds\n##$REF PAGE=361\n##$REF DATE=1969\n##XYPOINTS=(XY..XY)\n211.50,3.936\n211.67,3.938\n211.85,3.938\n212.02,3.940\n212.20,3.940\n212.37,3.940\n212.55,3.943\n212.72,3.943\n212.89,3.943\n213.07,3.945\n213.24,3.945\n214.11,3.947\n214.99,3.951\n215.86,3.955\n216.73,3.961\n217.60,3.966\n218.47,3.972\n219.34,3.976\n220.21,3.983\n221.08,3.989\n221.96,3.995\n222.83,3.999\n223.70,4.008\n224.57,4.014\n225.44,4.023\n226.31,4.031\n227.18,4.039\n228.05,4.048\n228.93,4.058\n229.80,4.069\n230.67,4.079\n231.54,4.090\n232.41,4.098\n233.28,4.098\n234.15,4.090\n235.02,4.075\n235.90,4.058\n236.77,4.039\n237.64,4.020\n238.51,3.997\n239.38,3.972\n240.25,3.947\n241.12,3.915\n242.00,3.884\n242.87,3.846\n243.74,3.808\n244.61,3.768\n245.62,3.717\n246.34,3.676\n247.22,3.622\n248.09,3.553\n248.97,3.488\n249.84,3.424\n250.71,3.353\n251.58,3.285\n252.45,3.227\n253.32,3.155\n254.19,3.079\n254.73,3.024\n254.90,3.001\n255.07,2.974\n255.24,2.946\n255.76,2.847\n256.28,2.742\n256.81,2.679\n257.33,2.614\n257.85,2.569\n##END=\n'