b'##TITLE=2-Aminothiazole\n##JCAMP-DX=4.24\n##DATA TYPE=UV/VIS SPECTRUM\n##ORIGIN=INSTITUTE OF ENERGY PROBLEMS OF CHEMICAL PHYSICS, RAS\n##OWNER=INEP CP RAS, NIST OSRD\nCollection (C) 2007 copyright by the U.S. Secretary of Commerce\non behalf of the United States of America. All rights reserved.\n##CAS REGISTRY NO=96-50-4\n##MOLFORM=C3H4N2S\n##MP=93\n##BP=140/ 11 mm\n##SOURCE REFERENCE=RAS UV No. 20239\n##$NIST SQUIB=1969BOL/359\n##$NIST SOURCE=TYUGLMTE\n##SPECTROMETER/DATA SYSTEM=unknown\n##XUNITS=Wavelength (nm)\n##YUNITS=Logarithm epsilon\n##XFACTOR=1.0\n##YFACTOR=1.0\n##FIRSTX=209.22\n##LASTX=279.11\n##FIRSTY=3.23\n##MAXX=279.11\n##MINX=209.22\n##MAXY=3.813\n##MINY=3.019\n##NPOINTS=94\n##$REF AUTHOR=Bolshakov, G.F.; et al.\n##$REF JOURNAL=Ultraviolet Spetra of Heteroorganic Compounds\n##$REF PAGE=359\n##$REF DATE=1969\n##XYPOINTS=(XY..XY)\n209.22,3.230\n209.35,3.227\n209.51,3.223\n209.97,3.212\n210.75,3.200\n211.52,3.193\n212.29,3.186\n213.06,3.177\n213.82,3.171\n214.59,3.166\n215.36,3.161\n216.13,3.160\n216.90,3.163\n217.66,3.164\n218.43,3.167\n219.20,3.173\n219.97,3.180\n220.74,3.187\n221.51,3.200\n222.27,3.210\n223.04,3.220\n223.81,3.231\n224.58,3.243\n225.35,3.256\n226.11,3.273\n226.88,3.291\n227.65,3.310\n228.42,3.330\n229.19,3.350\n229.95,3.370\n230.72,3.390\n231.49,3.411\n232.26,3.431\n233.03,3.451\n233.79,3.471\n234.56,3.493\n235.33,3.513\n236.10,3.529\n236.87,3.547\n237.63,3.564\n238.40,3.581\n239.17,3.603\n239.94,3.621\n240.71,3.639\n241.47,3.659\n242.24,3.677\n243.01,3.693\n243.78,3.707\n244.55,3.720\n245.31,3.733\n246.08,3.746\n246.85,3.759\n247.62,3.766\n248.39,3.774\n249.15,3.781\n249.92,3.791\n250.69,3.800\n251.46,3.803\n252.23,3.807\n252.99,3.810\n253.76,3.811\n254.53,3.813\n255.30,3.813\n256.07,3.813\n256.84,3.811\n257.60,3.810\n258.37,3.804\n259.14,3.800\n259.91,3.796\n260.68,3.790\n261.44,3.779\n262.21,3.766\n262.98,3.741\n263.75,3.719\n264.52,3.699\n265.28,3.677\n266.05,3.653\n266.82,3.629\n267.59,3.604\n268.36,3.583\n269.12,3.560\n269.89,3.531\n270.66,3.501\n271.43,3.466\n272.20,3.426\n272.96,3.387\n273.73,3.343\n274.50,3.294\n275.27,3.247\n276.04,3.207\n276.80,3.163\n277.57,3.114\n278.34,3.060\n279.11,3.019\n##END=\n'