b"##TITLE=2-Furancarboxaldehyde\n##JCAMP-DX=4.24\n##DATA TYPE=UV/VIS SPECTRUM\n##ORIGIN=INSTITUTE OF ENERGY PROBLEMS OF CHEMICAL PHYSICS, RAS\n##OWNER=INEP CP RAS, NIST OSRD\nCollection (C) 2007 copyright by the U.S. Secretary of Commerce\non behalf of the United States of America. All rights reserved.\n##CAS REGISTRY NO=98-01-1\n##MOLFORM=C5H4O2\n##MP=-36.5\n##BP=161.7\n##SOURCE REFERENCE=RAS UV No. 2507\n##$NIST SQUIB=1953GRA821-826\n##$NIST SOURCE=TSGMTE\n##SPECTROMETER/DATA SYSTEM=n.i.g.\n##XUNITS=Wavelength (nm)\n##YUNITS=Logarithm epsilon\n##XFACTOR=1.000000\n##YFACTOR=1.000000\n##FIRSTX=123.3246\n##LASTX=75.7505\n##FIRSTY=0.409443\n##MAXX=123.325\n##MINX=75.7505\n##MAXY=4.0809\n##MINY=0.409443\n##NPOINTS=654\n##$REF AUTHOR=Grammaticakis, P.\n##$REF TITLE=Contribution a l'etude de l'absorption dans l'U.-V. moyen et le visible de quelques aldehydes et cetones aromatiques ainsi que de certains de leurs derives fonctionnels, (Premier memoire)\n##$REF JOURNAL=Bull. Soc. Chim. Fr.\n##$REF VOLUME=20\n##$REF PAGE=821-826\n##$REF DATE=1953\n##XYPOINTS=(XY..XY)\n123.3246,0.409443\n123.3152,0.424980\n123.1561,0.430704\n123.1529,0.435876\n122.9946,0.440956\n122.9849,0.457140\n122.8072,0.462847\n122.7976,0.479028\n122.6401,0.484100\n122.6305,0.500278\n122.4734,0.505354\n122.4542,0.537718\n122.2785,0.542776\n122.2658,0.564133\n122.1093,0.569854\n122.1063,0.575026\n121.9506,0.580103\n121.9410,0.596289\n121.7664,0.601995\n121.7538,0.623353\n121.5990,0.628430\n121.5896,0.644606\n121.4352,0.649676\n121.4318,0.655503\n121.2778,0.660581\n121.2714,0.671580\n121.0990,0.676639\n121.0866,0.697996\n120.9335,0.703076\n120.9208,0.725078\n120.7681,0.730152\n120.7651,0.735327\n120.5971,0.735216\n120.5908,0.746214\n120.4389,0.751287\n120.4360,0.756469\n120.2841,0.762191\n120.2719,0.783546\n120.1053,0.783432\n120.0990,0.794432\n119.9484,0.799506\n119.9392,0.815684\n119.7889,0.820760\n119.7797,0.836944\n119.6116,0.842004\n119.5991,0.864006\n119.4527,0.863905\n119.4468,0.874261\n119.2978,0.879331\n119.2887,0.895511\n119.1397,0.901235\n119.1339,0.911589\n118.9705,0.911472\n118.9643,0.922476\n118.8165,0.927550\n118.8075,0.943732\n118.6601,0.948804\n118.6510,0.964985\n118.4889,0.964867\n118.4828,0.975868\n118.3362,0.980944\n118.3301,0.991948\n118.1839,0.997019\n118.1721,1.018376\n118.0080,1.024087\n118.0052,1.029262\n117.8597,1.034340\n117.8565,1.040163\n117.7115,1.045237\n117.7026,1.061419\n117.5579,1.066490\n117.5519,1.077495\n117.2460,1.087629\n117.2400,1.098630\n117.0965,1.103705\n117.0933,1.109531\n116.9326,1.114591\n116.9298,1.119767\n116.7811,1.135845\n116.7696,1.157203\n116.6268,1.162926\n116.6181,1.179103\n116.4587,1.184166\n116.4528,1.195169\n116.3112,1.200243\n116.3056,1.210597\n116.1640,1.216319\n116.1554,1.232498\n116.0000,1.232381\n115.9972,1.237559\n115.8595,1.237456\n115.8454,1.263991\n115.7049,1.269714\n115.7021,1.274890\n115.5651,1.274786\n115.5565,1.290967\n115.4000,1.296029\n115.3942,1.307029\n115.2551,1.312105\n115.2521,1.317930\n115.1133,1.323004\n115.1079,1.333359\n114.9553,1.333242\n114.9495,1.344245\n114.8116,1.349318\n114.8058,1.360321\n114.6709,1.360218\n114.6651,1.371219\n114.5110,1.376281\n114.5053,1.387283\n114.3711,1.387180\n114.3630,1.402714\n114.2261,1.408435\n114.2234,1.413612\n114.0731,1.413496\n114.0648,1.429675\n113.9289,1.434749\n113.9259,1.440574\n113.7930,1.440471\n113.7851,1.456003\n113.4981,1.466786\n113.4925,1.477788\n113.2238,1.487937\n113.2209,1.493762\n113.0732,1.493645\n113.0680,1.504000\n112.9341,1.509721\n112.9289,1.520077\n112.7983,1.519974\n112.7928,1.530975\n112.6463,1.530859\n112.6437,1.536037\n112.5111,1.541111\n112.5082,1.546936\n112.3786,1.546833\n112.3734,1.557187\n112.2441,1.557084\n112.2412,1.562909\n112.0936,1.567969\n112.0910,1.573147\n111.9594,1.578868\n111.9569,1.584046\n111.8260,1.589120\n111.8234,1.594298\n111.6794,1.594181\n111.6765,1.600006\n111.5488,1.599903\n111.5437,1.610258\n111.4163,1.610154\n111.4135,1.615979\n111.2705,1.615863\n111.2679,1.621040\n111.1412,1.620936\n111.1386,1.626114\n111.0093,1.631835\n111.0043,1.642190\n110.8624,1.642075\n110.8595,1.647899\n110.7337,1.647796\n110.7312,1.652973\n110.6031,1.658048\n110.6006,1.663225\n110.4754,1.663121\n110.4725,1.668947\n110.3320,1.668829\n110.3295,1.674007\n110.2024,1.679082\n110.1996,1.684906\n110.0752,1.684802\n110.0702,1.695158\n109.9307,1.695041\n109.9279,1.700866\n109.6758,1.711015\n109.6733,1.716192\n109.4119,1.715972\n109.4067,1.726974\n109.2817,1.732049\n109.2790,1.737873\n109.1414,1.737757\n109.1390,1.742934\n109.0170,1.742831\n109.0146,1.748008\n108.8929,1.747905\n108.7687,1.753626\n108.7639,1.763981\n108.5017,1.774764\n108.3811,1.774660\n108.3787,1.779838\n108.2410,1.784899\n108.2383,1.790723\n108.1184,1.790620\n108.1160,1.795798\n107.9963,1.795694\n107.9939,1.800872\n107.8596,1.800756\n107.8569,1.806580\n107.7378,1.806476\n107.7354,1.811654\n107.4781,1.822437\n107.4757,1.827614\n107.3575,1.827511\n107.3551,1.832688\n107.2371,1.832585\n107.2344,1.838410\n106.9798,1.848545\n106.9775,1.853723\n106.8603,1.853619\n106.8577,1.859444\n106.7384,1.864518\n106.7361,1.869695\n106.6049,1.869579\n106.5999,1.880582\n106.4836,1.880477\n106.4812,1.885655\n106.3651,1.885552\n106.3625,1.891377\n106.2299,1.896437\n106.2276,1.901615\n106.1120,1.901512\n106.1097,1.906689\n105.9918,1.912411\n105.9895,1.917588\n105.8745,1.917485\n105.8722,1.922662\n105.7405,1.928371\n105.7382,1.933549\n105.5047,1.944343\n105.5024,1.949521\n105.3719,1.954583\n105.3693,1.960407\n105.2556,1.960304\n105.2534,1.965481\n105.1399,1.965378\n105.1377,1.970555\n105.0103,1.970439\n105.0081,1.975617\n104.8952,1.975513\n104.7800,1.981234\n104.7777,1.986412\n104.6490,1.991473\n104.6372,2.018656\n104.5251,2.018552\n104.5229,2.023730\n104.4110,2.023626\n104.4085,2.029451\n104.2946,2.034525\n104.2902,2.044880\n104.1649,2.044764\n104.1602,2.055766\n104.0469,2.060840\n104.0421,2.071843\n103.9313,2.071739\n103.9291,2.076917\n103.8022,2.082625\n103.7953,2.098805\n103.6850,2.098702\n103.6805,2.109057\n103.5683,2.114131\n103.5658,2.119956\n103.4401,2.125017\n103.4354,2.136019\n103.3237,2.141093\n103.3168,2.157273\n103.2075,2.157170\n103.2053,2.162348\n103.0805,2.167409\n103.0712,2.189413\n102.9624,2.189310\n102.9581,2.199665\n102.8471,2.205387\n102.8403,2.221567\n102.7320,2.221463\n102.7298,2.226641\n102.6083,2.226524\n102.6015,2.242704\n102.4937,2.242601\n102.4781,2.280138\n102.3684,2.285212\n102.3596,2.306570\n102.2365,2.312279\n102.2276,2.333636\n102.1185,2.338710\n102.1073,2.365893\n101.9984,2.370967\n101.9896,2.392325\n101.9496,2.489405\n101.8673,2.398033\n101.8564,2.424568\n101.7502,2.424465\n101.7348,2.462002\n101.6265,2.467724\n101.6177,2.489081\n101.5120,2.488978\n101.4988,2.521338\n101.3780,2.526399\n101.3669,2.553582\n101.2596,2.558656\n101.2509,2.580013\n101.1439,2.585088\n101.1308,2.617448\n101.0109,2.622509\n100.9978,2.654869\n100.8910,2.660590\n100.8803,2.687126\n100.7740,2.692200\n100.7631,2.719382\n100.6440,2.724443\n100.6290,2.761981\n100.5229,2.767702\n100.5100,2.800063\n100.4045,2.805137\n100.3874,2.847852\n100.2690,2.853560\n100.2585,2.880096\n100.1535,2.885170\n100.1406,2.917530\n100.0356,2.923251\n100.0251,2.949787\n99.9226,2.949683\n99.9099,2.982043\n99.7928,2.987104\n99.7717,3.040822\n99.6674,3.046544\n99.6443,3.105439\n99.4241,3.116221\n99.4117,3.147934\n99.3105,3.147831\n99.3042,3.164011\n99.2009,3.169732\n99.1926,3.191090\n99.0773,3.196151\n99.0647,3.228511\n98.9622,3.233585\n98.9599,3.239410\n98.8576,3.244484\n98.8471,3.271667\n98.7346,3.271550\n98.7286,3.287083\n98.6265,3.292804\n98.6183,3.314162\n98.5167,3.319236\n98.5105,3.335416\n98.4091,3.340490\n98.4007,3.362495\n98.2872,3.367556\n98.2830,3.378559\n98.1840,3.378455\n98.1779,3.394635\n98.0772,3.399709\n98.0732,3.410065\n97.9624,3.409948\n97.9501,3.442308\n97.8497,3.448030\n97.8458,3.458385\n97.7477,3.458281\n97.7396,3.479639\n97.6296,3.479522\n97.6254,3.490525\n97.5278,3.490421\n97.5237,3.501424\n97.4244,3.506498\n97.4163,3.527856\n97.3051,3.532917\n97.2990,3.549097\n97.1999,3.554818\n97.1979,3.559996\n97.1012,3.559892\n97.0951,3.576072\n96.9967,3.581146\n96.9926,3.592149\n96.8842,3.592032\n96.8804,3.602387\n96.7821,3.608109\n96.7761,3.624289\n96.6783,3.629363\n96.6763,3.634540\n96.5665,3.640249\n96.5605,3.656429\n96.4632,3.661503\n96.4612,3.666681\n96.3660,3.666577\n96.3600,3.682757\n96.2511,3.687818\n96.2490,3.693643\n96.1541,3.693539\n96.1482,3.709720\n96.0517,3.714794\n96.0457,3.730974\n95.9494,3.736048\n95.9475,3.741225\n95.8393,3.746934\n95.8375,3.752111\n95.7434,3.752008\n95.7415,3.757185\n95.6455,3.762907\n95.6418,3.773262\n95.4390,3.784044\n95.4352,3.794400\n95.3420,3.794296\n95.3380,3.805298\n95.2333,3.805182\n95.2314,3.810360\n95.1386,3.810256\n95.1346,3.821258\n95.0401,3.826333\n95.0361,3.837335\n94.9303,3.842396\n94.9282,3.848221\n94.8340,3.853295\n94.8322,3.858473\n94.7383,3.863547\n94.7362,3.869372\n94.6424,3.874446\n94.6385,3.885448\n94.5354,3.885332\n94.5335,3.890509\n94.3468,3.901305\n94.3431,3.911660\n94.2406,3.911543\n94.2386,3.917368\n94.1458,3.922442\n94.1422,3.932797\n94.0514,3.932694\n94.0475,3.943696\n93.9457,3.943580\n93.9438,3.948757\n93.8514,3.954479\n93.8478,3.964834\n93.7576,3.964730\n93.7556,3.970555\n93.6543,3.970439\n93.6525,3.975616\n93.5609,3.980690\n93.5571,3.991693\n93.4657,3.996767\n93.3762,3.996663\n93.3724,4.007666\n93.2720,4.007549\n93.2702,4.012727\n93.1811,4.012623\n93.1793,4.017801\n93.0904,4.017697\n93.0884,4.023522\n92.9886,4.023406\n92.9868,4.028583\n92.8965,4.033657\n92.8945,4.039482\n92.8061,4.039379\n92.8044,4.044556\n92.7051,4.044440\n92.6154,4.049514\n92.6136,4.054691\n92.5258,4.054588\n92.5238,4.060413\n92.4361,4.060309\n92.4344,4.065487\n92.3342,4.070548\n92.1597,4.070341\n92.0599,4.076049\n91.8865,4.075842\n91.7875,4.080903\n90.8156,4.079725\n90.7328,4.074444\n90.6379,4.074327\n90.5557,4.068399\n90.1269,4.067868\n90.0367,4.057396\n90.0350,4.062574\n89.6952,4.056969\n89.5238,4.045747\n89.2678,4.045423\n89.1878,4.040142\n89.1079,4.034861\n89.1063,4.040038\n89.0285,4.028932\n89.0266,4.034757\n88.9371,4.028816\n88.8578,4.023534\n88.6861,4.023314\n88.6072,4.018033\n88.3564,4.017710\n88.2798,4.006604\n88.2782,4.011781\n88.2016,4.001322\n88.2000,4.006500\n88.1137,3.995381\n88.1120,4.001206\n87.9598,3.978994\n87.9580,3.984819\n87.8723,3.973700\n87.8707,3.978877\n87.7948,3.968418\n87.7174,3.963137\n87.7158,3.968315\n87.6288,3.963021\n87.5535,3.951915\n87.5519,3.957092\n87.4765,3.946634\n87.4749,3.951811\n87.3901,3.940692\n87.3119,3.940589\n87.1608,3.924201\n87.1590,3.930026\n86.9987,3.913626\n86.9227,3.908345\n86.9212,3.913522\n86.7617,3.897122\n86.6862,3.891841\n86.6846,3.897019\n86.6029,3.880722\n86.5996,3.891725\n86.5261,3.880619\n86.3681,3.864218\n86.3665,3.869396\n86.2932,3.858937\n86.2917,3.864115\n86.0616,3.837256\n86.0601,3.842433\n85.8314,3.814927\n85.8297,3.820752\n85.7589,3.804468\n85.7574,3.809646\n85.6868,3.793362\n85.6853,3.798540\n85.4584,3.771681\n85.4569,3.776859\n85.3775,3.760562\n85.3743,3.771565\n85.3058,3.750103\n85.3043,3.755281\n85.1615,3.733716\n85.1600,3.738894\n85.0796,3.727775\n85.0780,3.733600\n84.9359,3.712035\n84.9345,3.717212\n84.8560,3.700916\n84.8545,3.706093\n84.7132,3.684529\n84.7117,3.689706\n84.6336,3.673410\n84.6320,3.679234\n84.5632,3.662951\n84.5617,3.668128\n84.4931,3.651845\n84.4900,3.662847\n84.3424,3.635445\n84.3408,3.641269\n84.2725,3.624986\n84.2710,3.630163\n84.2014,3.619057\n84.1997,3.624882\n84.1226,3.608586\n84.1211,3.613763\n84.0546,3.592302\n84.0501,3.608482\n83.9839,3.586373\n83.9823,3.592198\n83.8348,3.570621\n83.8334,3.575798\n83.7659,3.559515\n83.7645,3.564692\n83.6865,3.554220\n83.6851,3.559398\n83.6193,3.537937\n83.6164,3.548292\n83.4806,3.521549\n83.4792,3.526727\n83.4034,3.510431\n83.4019,3.515608\n83.3350,3.499972\n83.3335,3.505149\n83.2654,3.494043\n83.2638,3.499868\n83.1870,3.488749\n83.1856,3.493927\n83.1191,3.477643\n83.1175,3.483468\n83.0498,3.472362\n83.0484,3.477540\n82.9733,3.461243\n82.9703,3.472245\n82.7591,3.439562\n82.7576,3.445386\n82.6904,3.434280\n82.6890,3.439458\n82.5534,3.423071\n82.4763,3.417777\n82.4749,3.422954\n82.4096,3.406671\n82.4080,3.412495\n82.3414,3.401389\n82.2633,3.401273\n82.1954,3.395992\n82.1277,3.390063\n82.1262,3.395888\n82.0514,3.384769\n81.9824,3.384666\n81.8476,3.374103\n81.7704,3.373987\n81.7035,3.368058\n81.6351,3.367955\n81.4929,3.357379\n81.4249,3.357276\n81.3501,3.351335\n81.2146,3.351127\n81.1400,3.345833\n80.9380,3.345523\n80.8639,3.340228\n80.6549,3.339905\n80.5898,3.333976\n80.4486,3.333756\n80.3836,3.328475\n79.2329,3.326650\n79.1673,3.331724\n78.8952,3.331284\n78.8300,3.337005\n78.5682,3.336578\n78.5037,3.341652\n78.3067,3.341328\n78.3055,3.346506\n78.1095,3.346182\n78.0378,3.351890\n77.9132,3.351683\n77.9119,3.356861\n77.8420,3.356744\n77.7787,3.361818\n77.5854,3.361495\n77.5224,3.367216\n77.4608,3.367113\n77.3904,3.372174\n77.2678,3.371966\n77.2666,3.377144\n77.1368,3.376924\n77.0746,3.381998\n77.0733,3.387823\n77.0048,3.387706\n76.9429,3.392780\n76.8822,3.392677\n76.8205,3.397751\n76.6921,3.397531\n76.6908,3.403356\n76.6305,3.403252\n76.6293,3.408430\n76.5605,3.413491\n76.3732,3.413167\n76.3121,3.418889\n76.3109,3.424066\n76.1917,3.423859\n76.0629,3.434641\n76.0036,3.434538\n76.0025,3.439715\n75.8179,3.439392\n75.7505,3.444453\n##END=\n"