b'##TITLE=Furfurylalcohol\n##JCAMP-DX=4.24\n##DATA TYPE=UV/VIS SPECTRUM\n##ORIGIN=INSTITUTE OF ENERGY PROBLEMS OF CHEMICAL PHYSICS, RAS\n##OWNER=INEP CP RAS, NIST OSRD\nCollection (C) 2007 copyright by the U.S. Secretary of Commerce\non behalf of the United States of America. All rights reserved.\n##CAS REGISTRY NO=98-00-0\n##MOLFORM=C5H6O2\n##MP=-31\n##BP=171\n##SOURCE REFERENCE=RAS UV No. 45\n##$NIST SQUIB=1948LAN/WOL2624-2626\n##$NIST SOURCE=TSGMTE\n##SPECTROMETER/DATA SYSTEM=Beckman DU\n##XUNITS=Wavelength (nm)\n##YUNITS=Logarithm epsilon\n##XFACTOR=1.000000\n##YFACTOR=1.000000\n##FIRSTX=205.9858\n##LASTX=239.1982\n##FIRSTY=2.74282\n##MAXX=239.198\n##MINX=205.986\n##MAXY=2.90659\n##MINY=1.03966\n##NPOINTS=152\n##$REF AUTHOR=Langlois, D.P.; Wolff, H.\n##$REF TITLE=Pseudo esters of levulinic acid\n##$REF JOURNAL=J. Am. Chem. Soc.\n##$REF VOLUME=70\n##$REF PAGE=2624-2626\n##$REF DATE=1948\n##XYPOINTS=(XY..XY)\n205.9858,2.742825\n205.9858,2.742825\n206.0179,2.744789\n206.0501,2.746753\n206.0822,2.748718\n206.0822,2.748718\n206.5395,2.758270\n206.8697,2.765537\n207.0873,2.769225\n207.0873,2.769225\n207.3585,2.775826\n207.8409,2.785927\n208.1890,2.794233\n208.1890,2.794233\n208.3400,2.796715\n208.6621,2.803174\n209.3880,2.816500\n210.5361,2.840136\n210.7404,2.842077\n210.9509,2.844958\n211.2534,2.849685\n211.7340,2.857166\n212.4786,2.868309\n212.4786,2.868309\n212.7254,2.870298\n212.9413,2.872954\n213.2681,2.875907\n213.2681,2.875907\n213.3479,2.878522\n213.6710,2.882423\n215.5717,2.900065\n216.0662,2.902238\n216.5617,2.904412\n217.0593,2.906587\n218.1135,2.903999\n218.7254,2.901119\n219.0804,2.898680\n219.4829,2.894591\n220.5203,2.879184\n220.8707,2.873927\n221.0761,2.869904\n221.3126,2.863667\n221.3126,2.863667\n221.6488,2.857175\n221.9265,2.850534\n222.1329,2.846769\n222.1329,2.846769\n222.9036,2.826610\n223.2343,2.817084\n223.4086,2.810024\n223.4086,2.810024\n223.6632,2.803279\n223.9985,2.791805\n224.4946,2.775699\n225.4331,2.737130\n225.4938,2.735912\n225.6158,2.731594\n225.8834,2.720750\n226.3813,2.699956\n227.1939,2.665789\n227.1939,2.665789\n227.7156,2.641008\n228.1455,2.619551\n228.4892,2.601723\n228.7523,2.587827\n228.9403,2.578167\n229.0590,2.573049\n229.0590,2.573049\n229.2779,2.558665\n229.4957,2.544280\n229.7115,2.529894\n230.4316,2.463375\n230.4879,2.456715\n230.4879,2.456715\n230.5493,2.452338\n230.6307,2.443266\n230.8014,2.426498\n230.8014,2.426498\n231.0048,2.402407\n231.1441,2.384631\n231.2837,2.364401\n231.4879,2.332947\n231.4879,2.332947\n231.5205,2.331022\n231.5531,2.329159\n231.5857,2.327421\n231.5857,2.327421\n231.6145,2.318397\n231.7029,2.301973\n231.9264,2.264072\n231.9264,2.264072\n231.9947,2.254653\n232.1381,2.227753\n233.0560,2.062833\n233.3072,2.024260\n233.4848,1.996699\n233.6031,1.978262\n233.6762,1.967058\n233.7185,1.961200\n233.7440,1.958798\n233.7440,1.958798\n233.9916,1.920253\n234.1779,1.891780\n234.3166,1.870935\n234.4217,1.855273\n234.5068,1.842350\n234.5858,1.829722\n235.1612,1.751662\n235.1707,1.747777\n235.1792,1.743953\n235.1857,1.740253\n235.1857,1.740253\n235.2119,1.737603\n235.2461,1.732785\n235.2969,1.724685\n235.3723,1.712189\n235.4808,1.694180\n235.6307,1.669545\n235.8303,1.637167\n236.0879,1.595934\n236.4119,1.544728\n236.4119,1.544728\n236.4491,1.536855\n236.4949,1.528337\n236.5578,1.517431\n236.6459,1.502394\n236.7678,1.481484\n236.9316,1.452959\n237.1458,1.415077\n237.4187,1.366094\n237.8102,1.302768\n237.8759,1.295008\n237.9416,1.287311\n238.0072,1.279740\n238.0072,1.279740\n238.0583,1.267240\n238.1072,1.254799\n238.1552,1.242484\n238.1552,1.242484\n238.2230,1.235324\n238.2611,1.227535\n238.3010,1.222219\n238.3010,1.222219\n238.4139,1.199473\n238.5078,1.181309\n238.5932,1.165295\n238.6809,1.149000\n238.7814,1.129993\n238.9054,1.105840\n239.0636,1.074110\n239.0636,1.074110\n239.1982,1.039656\n##END=\n'