b'##TITLE=Pyrazinamide\n##JCAMP-DX=4.24\n##DATA TYPE=UV/VIS SPECTRUM\n##ORIGIN=INSTITUTE OF ENERGY PROBLEMS OF CHEMICAL PHYSICS, RAS\n##OWNER=INEP CP RAS, NIST OSRD\nCollection (C) 2007 copyright by the U.S. Secretary of Commerce\non behalf of the United States of America. All rights reserved.\n##CAS REGISTRY NO=98-96-4\n##MOLFORM=C5H5N3O\n##MP=189-191\n##SOURCE REFERENCE=RAS UV No. 19709\n##$NIST SQUIB=1962LAN325\n##$NIST SOURCE=TYUGLMTE\n##SPECTROMETER/DATA SYSTEM=Hilger Uvispek\n##XUNITS=Wavelength (nm)\n##YUNITS=Logarithm epsilon\n##XFACTOR=1.0\n##YFACTOR=1.0\n##FIRSTX=212.34\n##LASTX=368.47\n##FIRSTY=3.936\n##MAXX=368.47\n##MINX=212.34\n##MAXY=3.936\n##MINY=0.406\n##NPOINTS=215\n##$REF AUTHOR=Lang (editor), L.\n##$REF JOURNAL=Absorption Spectra in the Ultraviolet and Visible Region\n##$REF VOLUME=3\n##$REF PAGE=325\n##$REF DATE=1962\n##XYPOINTS=(XY..XY)\n212.34,3.936\n213.35,3.916\n214.36,3.895\n215.21,3.872\n216.05,3.848\n216.90,3.825\n217.57,3.798\n218.25,3.771\n218.76,3.744\n219.43,3.717\n220.11,3.690\n220.28,3.659\n220.95,3.632\n221.46,3.606\n222.14,3.579\n222.64,3.552\n223.15,3.525\n224.00,3.498\n224.84,3.471\n225.68,3.447\n226.70,3.423\n227.88,3.403\n229.06,3.386\n230.42,3.369\n231.94,3.359\n233.46,3.353\n234.98,3.353\n236.50,3.356\n238.02,3.363\n239.37,3.376\n240.72,3.393\n242.08,3.410\n243.26,3.427\n244.44,3.447\n245.46,3.467\n246.47,3.487\n247.65,3.508\n248.67,3.531\n249.68,3.552\n250.69,3.575\n251.71,3.595\n252.55,3.619\n253.57,3.643\n254.58,3.663\n255.43,3.686\n256.44,3.710\n257.28,3.734\n258.30,3.757\n259.14,3.781\n260.16,3.804\n261.17,3.828\n262.18,3.848\n263.37,3.869\n264.55,3.885\n265.73,3.902\n267.08,3.912\n268.44,3.922\n269.96,3.926\n271.31,3.916\n272.66,3.899\n273.68,3.879\n274.35,3.852\n275.20,3.825\n275.70,3.798\n276.21,3.771\n276.72,3.744\n277.22,3.717\n277.73,3.690\n278.07,3.659\n278.58,3.629\n278.91,3.599\n279.25,3.568\n279.59,3.538\n279.93,3.508\n280.43,3.477\n280.77,3.447\n281.11,3.417\n281.45,3.386\n281.79,3.356\n281.96,3.326\n282.29,3.295\n282.63,3.265\n282.80,3.235\n283.14,3.204\n283.48,3.174\n283.64,3.144\n283.98,3.113\n284.32,3.083\n284.66,3.053\n285.17,3.026\n285.50,2.995\n285.84,2.965\n286.01,2.935\n286.52,2.908\n286.86,2.877\n287.36,2.847\n287.53,2.817\n288.21,2.790\n288.71,2.763\n289.22,2.732\n289.73,2.702\n290.24,2.675\n290.74,2.648\n291.25,2.621\n291.92,2.594\n292.60,2.567\n293.28,2.540\n294.12,2.516\n294.97,2.493\n296.15,2.473\n297.67,2.469\n299.19,2.473\n300.54,2.489\n301.89,2.506\n303.08,2.527\n304.26,2.547\n305.44,2.567\n306.63,2.584\n307.81,2.601\n308.99,2.618\n310.17,2.634\n311.36,2.651\n312.71,2.668\n314.06,2.682\n315.24,2.699\n316.60,2.712\n317.95,2.725\n319.47,2.732\n320.99,2.742\n322.51,2.742\n324.03,2.742\n325.55,2.736\n326.90,2.722\n328.26,2.705\n329.27,2.685\n330.28,2.665\n331.30,2.645\n332.14,2.621\n333.16,2.597\n334.00,2.574\n334.85,2.550\n335.69,2.527\n336.54,2.500\n337.38,2.476\n338.23,2.449\n338.90,2.422\n339.58,2.395\n340.42,2.371\n340.93,2.344\n341.60,2.318\n342.11,2.291\n342.62,2.264\n343.29,2.237\n343.97,2.210\n344.48,2.183\n344.98,2.156\n345.66,2.129\n346.17,2.098\n346.67,2.071\n347.18,2.044\n347.69,2.017\n348.20,1.990\n348.70,1.960\n349.21,1.933\n349.72,1.903\n350.05,1.872\n350.56,1.845\n351.07,1.819\n351.41,1.788\n351.74,1.758\n352.25,1.731\n352.59,1.700\n352.93,1.670\n353.26,1.640\n353.60,1.609\n353.94,1.579\n354.28,1.549\n354.79,1.518\n355.12,1.488\n355.46,1.458\n355.80,1.427\n356.31,1.397\n356.48,1.367\n356.98,1.340\n357.32,1.309\n357.66,1.279\n358.00,1.249\n358.50,1.218\n358.84,1.188\n359.18,1.158\n359.52,1.127\n359.85,1.097\n360.19,1.067\n360.70,1.036\n361.04,1.006\n361.38,0.976\n361.54,0.945\n361.88,0.915\n362.22,0.885\n362.56,0.854\n363.07,0.824\n363.40,0.794\n363.74,0.763\n364.08,0.733\n364.42,0.702\n364.92,0.675\n365.26,0.645\n365.60,0.615\n366.11,0.584\n366.44,0.554\n366.78,0.524\n367.29,0.493\n367.63,0.463\n368.13,0.436\n368.47,0.406\n##END=\n'